# Units: time:		fs
#        length:	Angstrom
#        mass: 		amu
#        temperature:   K
#####################################################################
 &GLOBAL
   PRINT_LEVEL  LOW
   PROJECT_NAME oDMB_water
   RUN_TYPE  MD
   WALLTIME 5760000 
 &END GLOBAL
#####################################################################
 &MOTION
   &MD
     ENSEMBLE  NVT
     STEPS    100000
     TIMESTEP        0.5   
     TEMPERATURE     300.
     COMVEL_TOL     1.00E-03
     INITIALIZATION_METHOD  DEFAULT
     &THERMOSTAT
       TYPE  CSVR
       &CSVR
         TIMECON     9.9999999999999986E+01
       &END CSVR
     &END THERMOSTAT
     &AVERAGES  T
     &END AVERAGES
   &END MD
   &PRINT
     &RESTART  SILENT
       &EACH
         MD  100
       &END EACH
     &END RESTART
   &END PRINT
 &END MOTION
#####################################################################
 &FORCE_EVAL
   METHOD  QS
   &DFT
     BASIS_SET_FILE_NAME ./GTH_BASIS_SETS
     POTENTIAL_FILE_NAME ./POTENTIAL
     &SCF
       MAX_SCF  150
       SCF_GUESS  RESTART
       &OT  T
         MINIMIZER  DIIS
       &END OT
       &PRINT
         &RESTART  SILENT
           &EACH
             MD  100
           &END EACH
         &END RESTART
       &END PRINT
     &END SCF
     &QS
       EPS_DEFAULT     9.9999999999999998E-13
       EPS_GVG_RSPACE     9.9999999999999995E-07
       EPS_PGF_ORB     9.9999999999999995E-07
     &END QS
     &MGRID
       NGRIDS  6
       CUTOFF     3.0000000000000000E+02
     &END MGRID
     &XC
       DENSITY_CUTOFF     1.0000000000000000E-10
       GRADIENT_CUTOFF     1.0000000000000000E-10
       TAU_CUTOFF     1.0000000000000000E-10
       &XC_FUNCTIONAL  NO_SHORTCUT
         &PBE  T
         &END PBE
       &END XC_FUNCTIONAL
       &VDW_POTENTIAL
         POTENTIAL_TYPE  PAIR_POTENTIAL
         &PAIR_POTENTIAL
           R_CUTOFF     8.0000000000000000E+00
           TYPE  DFTD3
           PARAMETER_FILE_NAME ./dftd3.dat
           REFERENCE_FUNCTIONAL PBE
           EPS_CN     1.0000000000000000E-02
           CALCULATE_C9_TERM  T
           REFERENCE_C9_TERM  T
           LONG_RANGE_CORRECTION  T
         &END PAIR_POTENTIAL
       &END VDW_POTENTIAL
     &END XC
     &REAL_TIME_PROPAGATION
       INITIAL_WFN  SCF_WFN
     &END REAL_TIME_PROPAGATION
   &END DFT
   &SUBSYS
     &CELL
       A    16.1150000000000000E+00    0.0000000000000000E+00   0.0000000000000000E+00
       B     0.0000000000000000E+00   16.1150000000000000E+00   0.0000000000000000E+00
       C     0.0000000000000000E+00    0.0000000000000000E+00  16.1150000000000000E+00
       MULTIPLE_UNIT_CELL  1 1 1
     &END CELL
     &COORD
     O        9.729  13.398   9.885
     H        9.937  12.687   9.278
     H        9.283  14.051   9.346
     O        2.466  13.657   0.564
     H        2.116  14.177   1.287
     H        3.406  13.610   0.735
     O       10.961  12.743   3.126
     H       11.169  13.675   3.193
     H       11.572  12.316   3.726
     O       10.802   9.415   6.805
     H       11.490   8.976   7.306
     H       10.280   9.872   7.464
     O        3.628   9.646   5.825
     H        4.459   9.434   6.251
     H        2.982   9.611   6.530
     O        3.230   2.600   4.665
     H        3.661   3.231   5.242
     H        3.838   1.862   4.621
     O        9.006   8.578   0.030
     H        9.897   8.792   0.308
     H        8.755   7.836   0.581
     O        0.496   1.660   6.035
     H        0.180   0.756   6.014
     H        1.275   1.628   6.591
     O       14.743   8.271  13.855
     H       15.506   7.792  13.533
     H       14.704   9.056  13.308
     O        0.620   0.676   3.215
     H        1.496   0.423   2.922
     H        0.760   1.075   4.074
     O        3.962   8.073   3.328
     H        3.111   8.079   2.891
     H        3.822   8.571   4.134
     O       12.633   2.970   6.598
     H       13.572   2.968   6.787
     H       12.260   3.573   7.241
     O        3.419   1.476   7.639
     H        3.319   1.718   8.560
     H        4.365   1.398   7.513
     O       12.170  15.219  15.430
     H       11.945  14.506  16.027
     H       12.472  15.925  16.001
     O       14.451  11.131   2.169
     H       13.805  11.805   1.954
     H       15.251  11.417   1.728
     O        1.191   3.122  14.461
     H        2.004   3.616  14.574
     H        1.359   2.284  14.893
     O        4.694  14.128  13.710
     H        3.850  13.812  13.389
     H        5.278  14.060  12.954
     O       13.050  12.689  11.313
     H       12.191  12.511  11.694
     H       13.473  13.278  11.938
     O       15.553   6.216   8.586
     H       15.378   5.441   8.052
     H       15.050   6.073   9.388
     O        6.977   4.618   7.512
     H        7.482   5.044   6.820
     H        7.020   3.686   7.302
     O       12.280   5.126   1.531
     H       13.055   5.662   1.363
     H       11.946   4.907   0.661
     O       15.989   2.406   9.558
     H       15.169   2.590  10.016
     H       16.666   2.790  10.114
     O        3.203  14.062   4.090
     H        2.753  14.565   4.769
     H        3.345  14.690   3.382
     O       11.510   5.378  15.204
     H       10.571   5.242  15.075
     H       11.841   5.604  14.335
     O        5.150  12.675  15.966
     H        5.658  11.908  15.701
     H        5.032  13.175  15.158
     O        3.228   1.844  10.282
     H        4.064   1.803  10.747
     H        3.142   2.761  10.022
     O        8.223   8.207  10.055
     H        8.041   7.270   9.980
     H        7.688   8.497  10.794
     O       10.768  12.588   7.213
     H       11.327  13.333   6.994
     H       10.073  12.608   6.554
     O       10.313   9.866   2.370
     H       10.845   9.317   2.947
     H       10.346  10.735   2.769
     O       12.131  14.690   9.496
     H       11.260  14.294   9.465
     H       12.630  14.125  10.086
     O        8.162  10.005   4.236
     H        8.909   9.938   3.640
     H        7.402  10.082   3.660
     O        4.052   4.541   6.456
     H        3.967   4.026   7.258
     H        4.962   4.839   6.456
     O       14.042   2.997  11.382
     H       13.254   2.616  10.993
     H       14.413   2.291  11.911
     O       14.849  10.320  11.878
     H       14.558  11.216  11.712
     H       14.452   9.805  11.176
     O        0.565   3.064   1.984
     H       -0.348   3.214   1.740
     H        0.540   2.282   2.536
     O        3.456   4.716  14.424
     H        3.939   4.683  15.249
     H        4.089   4.432  13.764
     O       10.958   7.123  10.531
     H       10.180   7.679  10.482
     H       11.087   6.973  11.467
     O       13.232   7.429   7.803
     H       12.645   6.688   7.651
     H       14.110   7.049   7.779
     O       13.992  14.237  13.626
     H       13.331  14.502  14.266
     H       14.314  13.395  13.947
     O        1.522   6.464  15.027
     H        1.368   6.106  15.902
     H        2.387   6.136  14.783
     O       15.600  10.134   6.249
     H       14.774  10.334   6.690
     H       15.340   9.678   5.448
     O        0.624  11.243   0.398
     H        1.371  10.645   0.360
     H        0.994  12.071   0.703
     O        7.329  11.504   7.412
     H        7.614  12.130   6.746
     H        6.697  11.990   7.942
     O       10.852  15.751  13.180
     H       11.255  16.385  12.588
     H       11.389  15.785  13.971
     O        5.061  11.988   4.627
     H        4.427  12.697   4.519
     H        4.569  11.289   5.057
     O        1.489   1.002   0.157
     H        0.985   1.517   0.788
     H        0.888   0.311  -0.123
     O        4.528   4.932   0.872
     H        5.167   4.928   1.585
     H        3.680   5.000   1.310
     O        8.136   6.261   1.308
     H        7.640   6.218   0.490
     H        7.481   6.467   1.975
     O        6.867   8.941  12.314
     H        7.690   8.557  12.618
     H        6.279   8.876  13.066
     O       11.554   8.205   4.294
     H       11.290   7.287   4.235
     H       11.323   8.465   5.186
     O       14.869   0.920  12.851
     H       15.740   0.829  12.466
     H       14.457   0.066  12.718
     O       13.265   0.532   1.448
     H       13.988  -0.082   1.317
     H       13.595   1.366   1.113
     O        6.098   1.826   7.069
     H        7.003   1.533   7.174
     H        5.829   1.474   6.220
     O        2.746  15.023   7.473
     H        2.869  15.971   7.517
     H        2.615  14.755   8.382
     O        0.984  14.743  14.588
     H        0.099  14.387  14.664
     H        1.461  14.360  15.325
     O        2.802  10.564  12.954
     H        2.572  11.493  12.928
     H        2.320  10.177  12.223
     O        5.240   0.704   4.669
     H        5.275  -0.211   4.948
     H        5.996   0.807   4.091
     O        1.011   7.735   3.322
     H        0.187   8.049   3.694
     H        1.503   7.404   4.074
     O        1.260   9.172  10.799
     H        0.428   9.647  10.816
     H        1.679   9.452   9.985
     O        8.651   3.504  11.448
     H        9.050   3.898  12.224
     H        8.409   2.621  11.726
     O        5.763   9.016   7.269
     H        5.473   8.789   8.152
     H        6.361   9.753   7.396
     O       15.179   3.895   7.451
     H       15.792   3.818   6.720
     H       15.590   3.403   8.162
     O       13.173  11.204   8.311
     H       13.085  10.541   8.996
     H       12.367  11.717   8.368
     O       15.454  15.203   6.211
     H       14.505  15.113   6.301
     H       15.787  14.308   6.272
     O        3.246  11.960   8.080
     H        3.047  11.070   8.370
     H        2.612  12.134   7.385
     O        1.807   5.699   1.596
     H        1.467   6.276   2.280
     H        1.438   4.840   1.801
     O       11.977   8.361  -0.060
     H       12.532   8.145   0.689
     H       11.705   7.512  -0.409
     O        0.630   6.814  12.421
     H        1.115   7.499  11.961
     H        0.998   6.809  13.304
     O       12.569  14.778   6.831
     H       12.409  14.809   7.775
     H       12.136  15.561   6.489
     O       14.673   4.053  14.437
     H       15.577   3.739  14.419
     H       14.242   3.585  13.721
     O       11.822   5.062   8.413
     H       11.119   5.576   8.014
     H       11.981   5.488   9.255
     O        5.430   8.359  14.960
     H        5.874   9.145  15.278
     H        4.517   8.476  15.222
     O        1.898   9.561   8.008
     H        2.170   8.665   8.206
     H        1.172   9.461   7.392
     O        2.019   6.618   8.383
     H        2.131   6.417   7.454
     H        1.076   6.542   8.533
     O        9.628   5.598   6.330
     H        9.915   5.340   5.454
     H        8.990   6.295   6.178
     O        9.439  10.407   8.911
     H        9.086   9.553   9.162
     H        8.686  10.886   8.564
     O        7.146   5.724  10.142
     H        6.969   5.271   9.318
     H        7.609   5.078  10.676
     O       12.841  12.983   0.950
     H       12.194  12.945   1.654
     H       12.523  12.358   0.298
     O        0.340  14.071   3.116
     H        0.272  15.006   3.311
     H        0.946  13.733   3.775
     O       15.056  14.729   0.810
     H       14.260  14.223   0.645
     H       15.395  14.380   1.635
     O        2.254   6.196   5.389
     H        1.594   5.556   5.122
     H        3.046   5.679   5.533
     O       12.465   6.706  12.819
     H       13.148   7.286  13.157
     H       12.932   6.091  12.253
     O        2.823   8.937  15.542
     H        2.702   9.406  14.717
     H        2.290   8.147  15.449
     O        3.608   0.935  14.032
     H        2.806   1.005  14.549
     H        3.920   0.044  14.194
     O        6.420  14.505  11.544
     H        6.170  13.951  10.804
     H        7.322  14.251  11.740
     O       10.298   2.676   9.048
     H       10.807   3.459   8.839
     H        9.607   2.987   9.633
     O       10.253   5.229   3.482
     H       11.015   5.081   2.922
     H        9.514   5.271   2.875
     O       12.450  11.335   5.098
     H       12.782  11.479   5.984
     H       11.790  10.649   5.197
     O        3.265   0.203   2.117
     H        4.211   0.143   1.983
     H        2.917   0.451   1.261
     O        2.207  13.736   9.923
     H        2.493  13.002   9.378
     H        1.356  13.985   9.562
     O       14.916  11.858  14.560
     H       15.109  11.208  13.885
     H       15.621  11.755  15.200
     O        7.935  15.148   8.567
     H        7.198  14.697   8.155
     H        7.572  15.512   9.375
     O       14.461   6.557   0.582
     H       14.461   6.683  -0.366
     H       15.288   6.940   0.875
     O        5.114  11.022  11.393
     H        4.417  10.772  11.999
     H        5.870  10.503  11.669
     O       14.230   3.252   0.874
     H       14.319   3.497  -0.047
     H       13.490   3.772   1.189
     O        3.000   4.391   9.442
     H        2.621   5.055   8.866
     H        2.372   4.310  10.161
     O        7.682   7.686   5.693
     H        6.942   7.979   6.225
     H        7.958   8.467   5.214
     O       14.593   9.026   4.050
     H       13.692   8.719   4.147
     H       14.535   9.747   3.423
     O        6.977  10.283  -0.049
     H        6.610  10.021   0.795
     H        7.771   9.756  -0.140
     O        2.242  13.097  12.805
     H        1.630  13.665  13.272
     H        2.141  13.340  11.885
     O        4.686   6.178  10.746
     H        4.090   5.634  10.230
     H        5.559   5.943  10.431
     O       15.486  12.524   9.296
     H       15.229  13.436   9.161
     H       14.781  12.014   8.898
     O       14.288   5.701  11.051
     H       14.175   4.761  11.192
     H       14.936   5.965  11.704
     O       15.485  15.127   8.916
     H       15.326  15.876   9.491
     H       15.556  15.507   8.041
     O        5.331  14.288   6.325
     H        4.452  14.398   6.686
     H        5.324  13.412   5.940
     O       11.818   1.435  11.036
     H       12.167   0.615  10.687
     H       11.320   1.811  10.310
     O        6.487   6.338   3.609
     H        6.934   6.972   4.171
     H        5.567   6.600   3.637
     O       12.040  15.378   3.462
     H       12.380  16.003   2.821
     H       11.900  15.898   4.253
     O        9.618   8.203  13.459
     H       10.393   8.756  13.361
     H        9.331   8.349  14.360
     O        5.997  10.225   2.628
     H        5.740  11.011   3.111
     H        5.302   9.593   2.809
     O        8.550  12.655   5.270
     H        8.072  11.892   4.945
     H        9.259  12.780   4.638
     O        8.555   0.715  11.619
     H        8.877   0.224  12.374
     H        7.637   0.456  11.538
     O        8.713   1.338   7.144
     H        9.141   1.829   7.846
     H        8.448   0.515   7.554
     O       11.232   0.770   5.890
     H       10.386   1.009   6.268
     H       11.759   1.567   5.958
     O        5.601   4.399  12.942
     H        6.056   5.056  13.468
     H        5.180   4.900  12.243
     O        5.431   1.632  11.879
     H        4.921   1.241  12.588
     H        5.605   2.526  12.173
     O        9.118  13.778  12.433
     H        9.407  13.543  11.551
     H        9.793  14.375  12.755
     O       11.137  11.766  12.975
     H       10.341  12.295  13.034
     H       11.359  11.564  13.884
     O        5.612  12.864   9.357
     H        4.870  12.800   8.756
     H        5.393  12.268  10.073
     O        4.376   8.749   9.647
     H        4.257   7.845   9.940
     H        4.725   9.205  10.413
     O        9.259   5.439  13.718
     H        9.322   6.394  13.688
     H        8.405   5.268  14.115
     O        1.516   0.747  12.066
     H        1.981   0.726  11.229
     H        2.207   0.692  12.725
     O       12.327  10.948  15.277
     H       12.304  10.024  15.526
     H       13.257  11.147  15.176
     O        0.735  12.707   6.561
     H        0.338  12.704   7.432
     H        0.436  11.891   6.159
     O        6.684   5.936  15.106
     H        6.094   5.373  15.607
     H        6.220   6.770  15.038
     O       13.291   8.982   9.963
     H       12.656   8.481  10.474
     H       13.244   8.605   9.085
     O        1.481   4.211  11.611
     H        1.268   5.034  12.051
     H        1.458   3.554  12.307
     O        0.586   4.206   4.747
     H        1.004   3.356   4.884
     H        0.320   4.198   3.828
     H        6.723  -1.161  -0.408
     C        6.910  -0.133  -0.149
     C        7.082   0.734  -1.221
     H        6.966   0.384  -2.216
     C        7.518   2.011  -0.964
     C        7.413   2.503   0.314
     H        7.577   3.559   0.521
     C        7.221   1.619   1.423
     C        6.923   0.299   1.190
     O        6.621  -0.532   2.255
     O        7.428   2.071   2.699
     C        8.805   2.251   3.180
     H        9.272   3.033   2.598
     H        8.751   2.691   4.221
     H        9.331   1.315   3.205
     C        7.026  -1.945   2.163
     H        7.761   2.691  -1.797
     H        8.102  -2.021   2.079
     H        6.513  -2.480   1.336
     H        6.817  -2.424   3.136
     &END COORD
     &KIND C
       BASIS_SET TZVP-GTH-q4
       POTENTIAL GTH-PBE-q4
     &END KIND
     &KIND O
       BASIS_SET DZVP-GTH-q6
       POTENTIAL GTH-PBE-q6
     &END KIND
     &KIND H
       BASIS_SET DZVP-GTH-q1
       MASS     2.0000000000000000E+00
       POTENTIAL GTH-PBE-q1
     &END KIND
     &TOPOLOGY
       NUMBER_OF_ATOMS  404 
       MULTIPLE_UNIT_CELL  1 1 1
     &END TOPOLOGY
   &END SUBSYS
 &END FORCE_EVAL
#####################################################################

