# Units: time:		fs
#        length:	Angstrom
#        mass: 		amu
#        temperature:   K
#####################################################################
 &GLOBAL
   PRINT_LEVEL  LOW
   PROJECT_NAME mDMB_water
   RUN_TYPE  MD
   WALLTIME 5760000
 &END GLOBAL
#####################################################################
 &MOTION
   &MD
     ENSEMBLE  NVT
     STEPS    100000
     TIMESTEP        0.5   
     TEMPERATURE     300.
     COMVEL_TOL     1.00E-03
     INITIALIZATION_METHOD  DEFAULT
     &THERMOSTAT
       TYPE  CSVR
       &CSVR
         TIMECON     9.9999999999999986E+01
       &END CSVR
     &END THERMOSTAT
     &AVERAGES  T
     &END AVERAGES
   &END MD
   &PRINT
     &RESTART  SILENT
       &EACH
         MD  100
       &END EACH
     &END RESTART
   &END PRINT
 &END MOTION
#####################################################################
 &FORCE_EVAL
   METHOD  QS
   &DFT
     BASIS_SET_FILE_NAME ./GTH_BASIS_SETS
     POTENTIAL_FILE_NAME ./POTENTIAL
     &SCF
       MAX_SCF  150
       SCF_GUESS  RESTART
       &OT  T
         MINIMIZER  DIIS
       &END OT
       &PRINT
         &RESTART  SILENT
           &EACH
             MD  100
           &END EACH
         &END RESTART
       &END PRINT
     &END SCF
     &QS
       EPS_DEFAULT     9.9999999999999998E-13
       EPS_GVG_RSPACE     9.9999999999999995E-07
       EPS_PGF_ORB     9.9999999999999995E-07
     &END QS
     &MGRID
       NGRIDS  6
       CUTOFF     3.0000000000000000E+02
     &END MGRID
     &XC
       DENSITY_CUTOFF     1.0000000000000000E-10
       GRADIENT_CUTOFF     1.0000000000000000E-10
       TAU_CUTOFF     1.0000000000000000E-10
       &XC_FUNCTIONAL  NO_SHORTCUT
         &PBE  T
         &END PBE
       &END XC_FUNCTIONAL
       &VDW_POTENTIAL
         POTENTIAL_TYPE  PAIR_POTENTIAL
         &PAIR_POTENTIAL
           R_CUTOFF     8.0000000000000000E+00
           TYPE  DFTD3
           PARAMETER_FILE_NAME ./dftd3.dat
           REFERENCE_FUNCTIONAL PBE
           EPS_CN     1.0000000000000000E-02
           CALCULATE_C9_TERM  T
           REFERENCE_C9_TERM  T
           LONG_RANGE_CORRECTION  T
         &END PAIR_POTENTIAL
       &END VDW_POTENTIAL
     &END XC
     &REAL_TIME_PROPAGATION
       INITIAL_WFN  SCF_WFN
     &END REAL_TIME_PROPAGATION
   &END DFT
   &SUBSYS
     &CELL
       A    16.1710000000000000E+00    0.0000000000000000E+00   0.0000000000000000E+00
       B     0.0000000000000000E+00   16.1710000000000000E+00   0.0000000000000000E+00
       C     0.0000000000000000E+00    0.0000000000000000E+00  16.1710000000000000E+00
       MULTIPLE_UNIT_CELL  1 1 1
     &END CELL
     &COORD
     O       12.299  12.608   6.648
     H       12.896  13.322   6.873
     H       12.835  11.817   6.713
     O       10.283  10.248  13.089
     H       10.161  11.030  12.550
     H       11.162   9.939  12.869
     O        4.291   9.383  12.539
     H        3.422   9.312  12.934
     H        4.897   9.255  13.269
     O       10.793   6.807  15.897
     H       11.241   7.484  16.404
     H       11.297   6.010  16.063
     O        6.193  12.304   6.205
     H        7.074  12.034   5.948
     H        5.987  13.035   5.622
     O        9.984   3.072  16.299
     H        9.423   3.375  15.586
     H       10.840   3.460  16.113
     O        5.922   9.171  14.958
     H        6.511   8.475  15.250
     H        5.187   9.135  15.570
     O       16.078   9.515   3.568
     H       16.518   9.563   4.417
     H       15.785  10.411   3.399
     O        2.862  12.374  11.378
     H        2.991  12.849  10.557
     H        2.343  11.608  11.133
     O        2.321   5.378  12.033
     H        1.542   5.917  12.170
     H        1.981   4.492  11.907
     O       12.889   4.715  12.391
     H       12.344   3.986  12.684
     H       12.359   5.494  12.558
     O       11.380  14.189   2.040
     H       11.894  13.684   2.670
     H       10.472  14.062   2.316
     O        1.689   9.792   5.747
     H        1.724   9.424   6.630
     H        2.551  10.189   5.618
     O        4.510  13.687   0.585
     H        4.687  13.173  -0.203
     H        5.252  13.505   1.161
     O       15.739  14.897   2.948
     H       15.362  15.668   2.524
     H       16.419  14.599   2.344
     O        1.310   3.182   9.623
     H        2.118   2.683   9.742
     H        0.786   2.978  10.397
     O       10.568   7.600   4.102
     H       10.690   8.500   3.799
     H       10.868   7.610   5.011
     O       11.137  15.288   9.731
     H       11.649  16.089   9.619
     H       10.652  15.425  10.545
     O        7.266   5.544   7.131
     H        8.172   5.344   7.367
     H        7.321   5.897   6.243
     O        7.210   2.213  10.552
     H        6.654   2.966  10.754
     H        8.082   2.471  10.852
     O        8.531   9.555   1.075
     H        9.120   9.821   1.781
     H        8.714  10.171   0.365
     O       10.778   4.979   2.604
     H        9.932   4.851   2.175
     H       10.753   5.882   2.920
     O        3.957   9.547   9.695
     H        3.847   9.410  10.636
     H        4.266  10.449   9.618
     O        3.900   1.405  10.446
     H        4.673   1.951  10.307
     H        3.734   1.458  11.387
     O       12.407   4.543   0.200
     H       13.236   5.022   0.233
     H       12.117   4.503   1.111
     O        5.171   8.844   7.162
     H        5.329   7.903   7.230
     H        4.900   9.106   8.042
     O        7.750   1.163   7.737
     H        7.834   1.843   7.069
     H        7.649   1.645   8.558
     O       11.800   2.416  13.338
     H       12.438   1.931  12.815
     H       11.759   1.941  14.168
     O        1.419  14.408  15.427
     H        2.161  15.008  15.358
     H        1.549  13.960  16.263
     O       10.010  12.418   8.208
     H       10.799  12.519   7.676
     H        9.530  13.237   8.086
     O       15.289   3.495   7.997
     H       16.055   3.390   8.561
     H       15.340   2.763   7.383
     O       16.100  15.670  13.698
     H       16.648  15.297  14.389
     H       15.685  16.431  14.105
     O        8.727  14.433   2.813
     H        8.813  14.397   3.766
     H        8.824  15.361   2.599
     O        5.038   5.803  -0.179
     H        4.499   6.237   0.484
     H        5.863   6.289  -0.172
     O       13.543   4.620   3.001
     H       13.834   5.500   2.760
     H       12.587   4.675   3.002
     O       14.015  10.958   0.853
     H       13.173  11.328   0.587
     H       14.393  10.616   0.043
     O       16.064   2.448  11.927
     H       16.807   1.950  12.268
     H       15.329   1.836  11.963
     O        1.567   9.042   8.366
     H        1.400   8.137   8.628
     H        2.455   9.222   8.678
     O        9.794   5.726  10.628
     H        9.826   5.642   9.675
     H        9.392   6.581  10.780
     O        9.292   6.302  13.767
     H       10.085   6.466  14.277
     H        8.943   5.485  14.123
     O        5.697  12.399  12.490
     H        4.897  11.923  12.266
     H        5.482  13.318  12.331
     O       11.940  12.535  15.730
     H       11.864  13.089  16.507
     H       11.067  12.160  15.616
     O       15.008   4.210  14.306
     H       15.349   4.068  13.423
     H       14.077   4.388  14.178
     O       10.065   3.872   5.179
     H       10.244   4.419   5.944
     H       10.266   4.433   4.430
     O       14.909   5.863   0.273
     H       15.029   5.365  -0.535
     H       15.709   5.705   0.774
     O       13.991  10.202   6.984
     H       14.799  10.649   6.732
     H       13.902  10.377   7.921
     O        0.448  15.416   5.358
     H        0.087  15.345   4.475
     H        1.240  14.878   5.338
     O        2.671  13.520   5.367
     H        2.621  13.344   4.428
     H        3.549  13.879   5.498
     O       14.999   7.093   3.481
     H       15.299   8.001   3.520
     H       14.678   6.908   4.364
     O        4.625  11.019   2.651
     H        3.705  11.025   2.384
     H        4.630  10.548   3.484
     O        6.324  13.292   2.566
     H        7.278  13.355   2.615
     H        6.138  12.363   2.696
     O        4.904   6.359   8.484
     H        5.391   6.864   9.135
     H        5.572   6.038   7.879
     O        2.203   6.340   9.265
     H        2.306   5.990  10.150
     H        3.098   6.499   8.965
     O       15.498  12.737   9.317
     H       15.980  13.421   9.782
     H       14.582  12.886   9.553
     O        4.014  15.266   8.915
     H        4.922  15.016   8.744
     H        4.074  16.141   9.299
     O       12.841  13.092  10.308
     H       12.211  13.640   9.841
     H       13.185  13.657  10.999
     O       11.891   0.731   2.386
     H       11.980  -0.222   2.379
     H       11.462   0.926   3.220
     O       -0.263   6.283   8.197
     H        0.670   6.362   8.395
     H       -0.394   5.350   8.027
     O       11.836   9.133   1.246
     H       11.440   9.386   2.080
     H       12.713   9.514   1.271
     O        7.276   0.189  12.678
     H        7.816   0.453  13.423
     H        7.300   0.941  12.086
     O       12.701   4.100   9.217
     H       13.611   4.048   8.926
     H       12.754   4.434  10.113
     O        0.839  10.634  10.647
     H        0.253  11.260  10.223
     H        1.019   9.978   9.973
     O       14.510  14.294   6.985
     H       15.074  14.620   6.283
     H       15.022  13.601   7.402
     O        9.054  11.017   5.855
     H        9.481  11.616   6.467
     H        8.572  10.407   6.413
     O        2.801   1.684  12.921
     H        2.938   0.864  13.395
     H        2.808   2.358  13.601
     O        7.707   9.956   8.250
     H        7.723  10.319   9.136
     H        6.782   9.781   8.079
     O        5.941   7.404  10.836
     H        5.515   8.147  11.264
     H        6.872   7.518  11.029
     O       13.684  14.636  12.719
     H       14.566  14.807  13.050
     H       13.128  14.651  13.498
     O       12.306   8.171  12.719
     H       12.819   8.087  13.523
     H       12.955   8.139  12.017
     O       12.026   0.688  15.446
     H       12.974   0.814  15.480
     H       11.714   0.979  16.303
     O       10.520  10.380   3.341
     H       11.355  10.803   3.540
     H        9.898  10.777   3.952
     O        7.863   7.210  15.885
     H        8.302   7.990  16.224
     H        8.485   6.837  15.260
     O       14.020   8.487  15.379
     H       14.435   7.760  15.843
     H       13.144   8.546  15.761
     O        3.337   7.098   1.613
     H        3.222   7.824   0.999
     H        4.086   7.355   2.150
     O       14.606   1.165   2.025
     H       13.655   1.102   2.117
     H       14.859   1.873   2.617
     O       15.806   3.335   3.891
     H       14.943   3.708   3.710
     H       16.421   3.942   3.478
     O        4.990  14.905  12.229
     H        4.662  15.286  11.414
     H        5.706  15.483  12.493
     O       10.813   1.199   4.913
     H       10.444   2.069   5.063
     H       11.614   1.184   5.436
     O        7.917   5.215   1.784
     H        7.611   4.395   1.397
     H        7.984   5.819   1.045
     O       12.480   1.369   9.243
     H       12.523   1.161   8.310
     H       12.445   2.325   9.275
     O        0.849  14.268  11.121
     H        0.664  14.625  11.990
     H        1.279  13.430  11.292
     O        2.818  12.881   8.107
     H        2.893  13.790   8.396
     H        2.788  12.935   7.152
     O        0.965   5.657   1.956
     H        0.491   6.346   2.423
     H        1.801   6.059   1.720
     O        8.820  14.972   8.056
     H        9.599  15.205   8.562
     H        8.343  15.796   7.956
     O       10.474   9.052   9.139
     H       10.361   8.560   9.952
     H        9.619   9.450   8.978
     O       15.023  12.123   3.354
     H       14.794  11.742   2.506
     H       15.286  13.020   3.152
     O       -0.029  11.726   6.680
     H        0.623  11.085   6.398
     H        0.339  12.108   7.477
     O       11.479   7.470   6.789
     H       12.420   7.348   6.660
     H       11.414   8.200   7.405
     O        2.974  12.456  14.404
     H        3.252  12.677  13.515
     H        2.382  13.165  14.653
     O       15.386   1.572   5.979
     H       15.620   2.137   5.243
     H       16.085   0.918   6.012
     O        6.619   3.066   0.902
     H        5.808   3.150   1.403
     H        6.706   2.127   0.741
     O        8.449   0.870   1.691
     H        9.024   1.593   1.441
     H        7.942   1.211   2.428
     O       12.382  12.265   3.969
     H       13.331  12.193   3.868
     H       12.256  12.517   4.883
     O        6.594  14.333   9.695
     H        6.145  13.538   9.406
     H        7.346  14.411   9.108
     O       13.052   0.585   6.740
     H       13.813   1.137   6.564
     H       13.400  -0.307   6.755
     O        6.636  11.830  14.984
     H        6.522  12.036  14.057
     H        6.458  10.891  15.045
     O        5.445   4.222  11.308
     H        5.588   5.138  11.071
     H        5.161   4.253  12.222
     O       15.882   6.949  12.557
     H       15.344   6.336  13.059
     H       15.308   7.251  11.853
     O        3.956   4.186  13.911
     H        4.361   4.728  14.588
     H        3.638   4.812  13.260
     O        9.561  14.919   5.366
     H        9.253  14.810   6.266
     H        9.930  15.802   5.345
     O        9.618  15.026  11.775
     H       10.189  14.973  12.542
     H        8.770  15.297  12.125
     O       14.465   8.093  10.217
     H       14.727   7.717   9.376
     H       14.075   8.937   9.991
     O        8.759   0.086  15.130
     H        9.412  -0.604  15.247
     H        8.868   0.651  15.894
     O        1.934  13.433   1.855
     H        1.831  12.495   2.011
     H        2.862  13.542   1.648
     O        3.595  15.709  14.357
     H        4.374  15.953  14.856
     H        3.937  15.280  13.572
     O        5.710   8.439   2.327
     H        5.394   9.317   2.112
     H        6.663   8.528   2.356
     O        2.790   9.650  15.797
     H        2.253   9.516  15.017
     H        3.198  10.506  15.664
     O        5.297  11.862   8.744
     H        4.460  12.326   8.732
     H        5.666  12.011   7.873
     O        7.822   4.278  14.758
     H        7.511   4.163  13.860
     H        7.108   3.949  15.303
     O       11.112  14.599  14.205
     H       11.542  13.868  14.650
     H       11.406  15.376  14.680
     O        7.561  10.953  10.868
     H        8.435  11.334  10.786
     H        7.044  11.631  11.302
     O       13.653   1.137  11.737
     H       13.581   0.214  11.981
     H       13.309   1.177  10.845
     O        8.546   7.821  11.574
     H        8.833   8.722  11.721
     H        8.735   7.372  12.398
     O       14.253   7.495   6.257
     H       14.918   7.079   6.805
     H       14.318   8.427   6.467
     O        4.276  10.490   5.228
     H        4.898  11.185   5.441
     H        4.481   9.787   5.845
     O       13.151  10.577   9.726
     H       13.089  11.496   9.988
     H       12.261  10.341   9.466
     O        9.344  11.192  15.369
     H        9.731  10.720  14.632
     H        8.482  11.464  15.054
     O        5.359  14.589   4.896
     H        5.644  15.503   4.881
     H        5.703  14.217   4.084
     O        7.389   2.908   5.583
     H        6.882   3.574   6.048
     H        8.181   3.365   5.298
     O        1.575   9.351  13.251
     H        1.295   9.929  12.542
     H        1.099   8.535  13.097
     O        9.879  12.229  11.014
     H       10.094  12.313  10.085
     H        9.535  13.089  11.259
     O        7.918   6.399   4.375
     H        7.916   6.089   3.469
     H        8.618   7.051   4.403
     O        9.338   3.253  11.723
     H        9.734   4.066  11.407
     H       10.059   2.780  12.137
     O        6.128  16.050   0.112
     H        6.997  15.739  -0.141
     H        5.752  15.328   0.615
     O        6.527   0.990   3.914
     H        6.911   1.687   4.446
     H        5.648   1.303   3.705
     O       14.668   1.415  15.305
     H       14.468   2.327  15.092
     H       14.915   1.433  16.229
     O       10.323   5.128   7.864
     H       10.614   6.006   7.618
     H       11.085   4.733   8.289
     O        2.007  10.787   2.132
     H        1.603  10.274   2.832
     H        2.129  10.163   1.416
     C        3.344   2.768   2.535
     C        4.031   3.897   3.028
     C        4.299   4.109   4.380
     H        4.717   5.101   4.642
     C        3.918   3.120   5.306
     H        4.219   3.298   6.379
     C        3.210   1.956   4.850
     C        2.869   1.818   3.484
     H        2.199   1.041   3.240
     O        2.828   0.985   5.714
     C        2.533   1.309   7.074
     H        1.679   1.956   7.027
     H        3.401   1.832   7.636
     H        2.235   0.386   7.601
     H        4.260   4.739   2.385
     O        2.953   2.710   1.166
     C        2.407   1.504   0.653
     H        1.551   1.122   1.298
     H        3.167   0.761   0.427
     H        2.047   1.703  -0.318
     &END COORD
     &KIND C
       BASIS_SET TZVP-GTH-q4
       POTENTIAL GTH-PBE-q4
     &END KIND
     &KIND O
       BASIS_SET DZVP-GTH-q6
       POTENTIAL GTH-PBE-q6
     &END KIND
     &KIND H
       BASIS_SET DZVP-GTH-q1
       MASS     2.0000000000000000E+00
       POTENTIAL GTH-PBE-q1
     &END KIND
     &TOPOLOGY
       NUMBER_OF_ATOMS  404 
       MULTIPLE_UNIT_CELL  1 1 1
     &END TOPOLOGY
   &END SUBSYS
 &END FORCE_EVAL
#####################################################################

