# Units: time:		fs
#        length:	Angstrom
#        mass: 		amu
#        temperature:   K
#####################################################################
 &GLOBAL
   PRINT_LEVEL  LOW
   PROJECT_NAME anisidine_water
   RUN_TYPE  MD
   WALLTIME 5760000  # 1600 hours
 &END GLOBAL
#####################################################################
 &MOTION
   &MD
     ENSEMBLE  NVT
     STEPS    100000
     TIMESTEP        0.5   
     TEMPERATURE     300.
     COMVEL_TOL     1.00E-03
     INITIALIZATION_METHOD  DEFAULT
     &THERMOSTAT
       TYPE  CSVR
       &CSVR
         TIMECON     9.9999999999999986E+01
       &END CSVR
     &END THERMOSTAT
     &AVERAGES  T
     &END AVERAGES
   &END MD
   &PRINT
     &RESTART  SILENT
       &EACH
         MD  100
       &END EACH
     &END RESTART
   &END PRINT
 &END MOTION
#####################################################################
 &FORCE_EVAL
   METHOD  QS
   &DFT
     BASIS_SET_FILE_NAME ./GTH_BASIS_SETS
     POTENTIAL_FILE_NAME ./POTENTIAL
     &SCF
       MAX_SCF  150
       SCF_GUESS  RESTART
       &OT  T
         MINIMIZER  DIIS
       &END OT
       &PRINT
         &RESTART  SILENT
           &EACH
             MD  100
           &END EACH
         &END RESTART
       &END PRINT
     &END SCF
     &QS
       EPS_DEFAULT     9.9999999999999998E-13
       EPS_GVG_RSPACE     9.9999999999999995E-07
       EPS_PGF_ORB     9.9999999999999995E-07
     &END QS
     &MGRID
       NGRIDS  6
       CUTOFF     3.0000000000000000E+02
     &END MGRID
     &XC
       DENSITY_CUTOFF     1.0000000000000000E-10
       GRADIENT_CUTOFF     1.0000000000000000E-10
       TAU_CUTOFF     1.0000000000000000E-10
       &XC_FUNCTIONAL  NO_SHORTCUT
         &PBE  T
         &END PBE
       &END XC_FUNCTIONAL
       &VDW_POTENTIAL
         POTENTIAL_TYPE  PAIR_POTENTIAL
         &PAIR_POTENTIAL
           R_CUTOFF     8.0000000000000000E+00
           TYPE  DFTD3
           PARAMETER_FILE_NAME ./dftd3.dat
           REFERENCE_FUNCTIONAL PBE
           EPS_CN     1.0000000000000000E-02
           CALCULATE_C9_TERM  T
           REFERENCE_C9_TERM  T
           LONG_RANGE_CORRECTION  T
         &END PAIR_POTENTIAL
       &END VDW_POTENTIAL
     &END XC
     &REAL_TIME_PROPAGATION
       INITIAL_WFN  SCF_WFN
     &END REAL_TIME_PROPAGATION
   &END DFT
   &SUBSYS
     &CELL
       A    15.9540000000000000E+00    0.0000000000000000E+00   0.0000000000000000E+00
       B     0.0000000000000000E+00   15.9540000000000000E+00   0.0000000000000000E+00
       C     0.0000000000000000E+00    0.0000000000000000E+00  15.9540000000000000E+00
       MULTIPLE_UNIT_CELL  1 1 1
     &END CELL
     &COORD
     O       14.533  10.165   9.149
     C       13.464  10.877   9.641
     C       13.556  11.989  10.560
     H       14.478  12.400  10.813
     C       12.339  12.515  11.137
     H       12.396  13.394  11.821
     C       11.091  12.067  10.731
     N        9.866  12.701  11.024
     H        9.159  12.023  11.152
     H        9.985  13.244  11.800
     C       11.084  10.915   9.877
     H       10.165  10.493   9.524
     C       12.205  10.322   9.439
     H       12.121   9.397   8.862
     C       15.869  10.737   9.251
     H       15.813  11.800   8.963
     H       16.230  10.660  10.274
     H       16.427  10.207   8.527
     O        4.179   6.677   9.460
     H        4.626   7.135  10.172
     H        3.254   6.700   9.703
     O       14.442   4.203  11.022
     H       14.930   3.380  11.052
     H       14.737   4.628  10.217
     O        4.908   5.644   1.985
     H        4.752   4.780   2.365
     H        5.819   5.841   2.203
     O       12.918   9.682  14.408
     H       13.490  10.402  14.673
     H       12.248   9.643  15.089
     O        8.755   7.872   0.316
     H        8.166   7.831   1.070
     H        8.189   8.110  -0.418
     O        7.861  10.658  13.014
     H        7.743   9.749  13.289
     H        8.589  10.978  13.547
     O        0.288   4.873  13.476
     H        0.088   5.377  12.688
     H        1.116   5.238  13.791
     O        9.697  11.768  15.095
     H       10.266  11.150  15.554
     H        8.848  11.681  15.527
     O       15.665   7.593  11.793
     H       15.206   7.534  12.631
     H       15.001   7.371  11.140
     O        2.418   1.369  14.394
     H        1.523   1.702  14.457
     H        2.719   1.651  13.530
     O        8.690  12.157   4.147
     H        8.248  11.768   4.901
     H        8.923  13.040   4.435
     O       15.722   4.025   1.667
     H       14.902   4.423   1.959
     H       16.403   4.620   1.981
     O       12.222   3.716   4.549
     H       12.957   4.291   4.338
     H       11.444   4.231   4.335
     O       13.061   7.017  10.296
     H       12.672   7.679  10.867
     H       12.385   6.345  10.211
     O       13.895  10.896   6.029
     H       12.958  11.088   6.007
     H       14.310  11.744   6.187
     O        5.580   8.484  11.285
     H        6.433   8.742  10.935
     H        5.786   7.899  12.014
     O        5.576  12.237  13.186
     H        4.976  11.813  12.573
     H        6.336  11.656  13.219
     O        1.165   5.299   4.561
     H        1.589   5.398   3.709
     H        1.806   4.830   5.095
     O        3.056   8.659  14.133
     H        2.368   8.826  13.488
     H        3.255   9.521  14.499
     O       15.640   1.626   5.826
     H       14.972   1.769   6.497
     H       16.340   1.157   6.281
     O       12.708  13.607  16.075
     H       13.293  12.861  15.940
     H       13.098  14.314  15.561
     O       11.864   7.681   5.438
     H       11.383   8.260   6.030
     H       12.757   7.674   5.783
     O        6.465  10.116   2.825
     H        5.679  10.561   2.508
     H        6.502  10.330   3.757
     O       13.786  -0.284   4.864
     H       13.078   0.312   4.620
     H       14.554   0.279   4.954
     O        3.315   3.805   6.065
     H        3.432   3.186   6.786
     H        3.937   3.515   5.398
     O        7.768   3.858  11.689
     H        7.029   4.122  11.142
     H        8.297   4.651  11.776
     O        9.964   3.977  14.180
     H        9.482   3.156  14.281
     H       10.411   3.890  13.338
     O        7.197   7.571   5.491
     H        6.932   6.922   6.142
     H        6.381   7.827   5.061
     O       15.588  13.115   6.494
     H       14.771  13.581   6.672
     H       16.071  13.153   7.320
     O       14.493   4.940   5.838
     H       15.393   5.034   5.524
     H       14.502   5.331   6.712
     O       10.421  13.930   1.447
     H        9.859  13.221   1.136
     H       11.263  13.776   1.018
     O        3.474  14.880  12.574
     H        3.417  14.166  13.209
     H        2.669  14.811  12.061
     O        5.211   0.708  14.624
     H        4.289   0.835  14.845
     H        5.687   1.008  15.398
     O        4.622   8.169   4.689
     H        4.311   8.021   3.796
     H        4.127   7.547   5.222
     O       12.752  15.492  13.898
     H       11.856  15.432  13.566
     H       12.738  16.243  14.492
     O       12.047   3.453   7.324
     H       12.336   3.787   6.475
     H       11.369   2.812   7.111
     O       14.016   1.930   8.237
     H       13.333   2.426   7.785
     H       13.543   1.240   8.704
     O        6.743   5.692   7.483
     H        5.794   5.786   7.402
     H        6.930   4.825   7.124
     O        6.793  14.016   6.618
     H        6.417  14.406   7.408
     H        7.592  14.519   6.460
     O        2.122   3.660   9.845
     H        1.763   4.546   9.899
     H        1.365   3.087   9.960
     O       14.875   7.692  14.471
     H       14.133   8.296  14.521
     H       14.480   6.822  14.526
     O        1.547  14.888  15.578
     H        1.630  15.443  14.803
     H        1.019  15.404  16.188
     O       10.907  10.860   2.975
     H       10.049  11.158   3.278
     H       10.712  10.268   2.248
     O        7.633  10.330   5.836
     H        7.282  10.792   6.598
     H        7.173   9.491   5.832
     O       12.903   1.213  15.973
     H       13.795   0.948  16.196
     H       12.998   2.094  15.611
     O       14.543  11.517  15.603
     H       15.319  11.918  15.213
     H       14.869  11.076  16.388
     O        9.098   6.469  11.606
     H        9.136   6.585  10.656
     H        9.837   6.978  11.939
     O       16.003   2.757  15.111
     H       15.979   3.612  14.681
     H       15.862   2.950  16.038
     O       14.774   5.767   8.629
     H       14.050   6.277   8.993
     H       15.363   6.421   8.252
     O        5.320   4.326  10.557
     H        4.724   4.071  11.262
     H        4.863   5.034  10.102
     O        1.014  12.276  14.308
     H        1.139  13.169  14.629
     H        1.867  11.858  14.422
     O        2.843   9.188   7.785
     H        2.928   9.430   6.863
     H        3.387   9.824   8.251
     O       10.478   5.691  16.180
     H       10.016   6.434  15.792
     H       10.295   4.960  15.589
     O        8.650   7.453   9.023
     H        7.937   6.951   8.628
     H        8.211   8.133   9.534
     O        3.540  14.508   1.790
     H        2.858  14.809   1.190
     H        3.193  13.698   2.162
     O       10.368   3.019  11.535
     H        9.493   3.406  11.505
     H       10.881   3.540  10.917
     O        1.561  -0.033   7.514
     H        2.154  -0.446   6.886
     H        2.040   0.734   7.828
     O       10.539  14.214   4.272
     H       10.999  15.053   4.245
     H       10.522  13.921   3.361
     O        7.295   6.744   2.668
     H        7.985   6.088   2.566
     H        7.502   7.183   3.493
     O        1.036  13.718  11.351
     H        0.718  13.091  12.001
     H        0.409  14.441  11.390
     O        7.575   3.196   6.666
     H        7.341   3.052   5.749
     H        8.436   2.790   6.761
     O       13.023   5.325   1.585
     H       12.196   4.933   1.307
     H       12.803   6.234   1.786
     O        4.142  10.991   1.846
     H        4.233  10.038   1.856
     H        3.454  11.173   2.487
     O        6.595  11.562   8.147
     H        6.751  12.439   7.797
     H        5.699  11.593   8.482
     O       10.374  13.275   7.570
     H       10.466  12.891   8.441
     H       10.827  12.665   6.989
     O        0.747   1.796   3.224
     H        0.439   2.549   2.721
     H        0.300   1.870   4.067
     O       14.786  15.630  11.630
     H       14.257  15.908  12.378
     H       14.187  15.670  10.884
     O        7.105  14.630  13.892
     H        6.562  13.983  13.442
     H        6.485  15.291  14.201
     O        5.046   6.847  13.733
     H        4.388   7.517  13.919
     H        4.651   6.031  14.040
     O        1.044   9.891  12.361
     H        0.516   9.114  12.177
     H        0.403  10.574  12.561
     O        3.728  10.676  11.548
     H        2.840  10.350  11.693
     H        4.272   9.889  11.521
     O       10.236   0.629  10.072
     H        9.679   0.069  10.612
     H       10.236   1.474  10.522
     O        7.973   0.389   2.513
     H        7.626  -0.488   2.345
     H        8.878   0.352   2.204
     O        4.756   3.060   3.774
     H        5.607   2.911   3.361
     H        4.269   2.251   3.621
     O        1.488  13.329   8.558
     H        1.732  14.249   8.457
     H        1.473  13.187   9.505
     O        7.695  15.740  11.389
     H        6.955  16.347  11.400
     H        7.551  15.173  12.147
     O        9.942   1.692   7.489
     H        9.885   1.346   8.380
     H        9.663   0.966   6.931
     O       11.759   4.657   9.880
     H       12.637   4.340  10.088
     H       11.612   4.381   8.975
     O        5.936   2.080   8.894
     H        6.487   2.417   8.187
     H        5.980   2.753   9.574
     O       15.992   1.766  10.212
     H       15.638   1.089  10.789
     H       15.367   1.815   9.488
     O        4.031   6.449   6.670
     H        3.623   5.594   6.533
     H        3.897   6.633   7.600
     O        3.490   0.684   3.597
     H        2.544   0.829   3.580
     H        3.625  -0.081   3.038
     O        8.000   1.968  13.843
     H        7.396   2.513  13.337
     H        8.495   1.483  13.183
     O        8.931   4.566   2.195
     H        9.462   4.975   2.878
     H        9.233   4.970   1.382
     O       13.397   3.711  15.077
     H       14.272   3.323  15.061
     H       13.444   4.380  15.760
     O        7.716   8.009  13.648
     H        6.885   7.542  13.733
     H        8.290   7.397  13.188
     O       14.654   8.100   5.871
     H       14.914   7.933   4.965
     H       14.637   9.054   5.944
     O       13.659  11.439   3.299
     H       12.774  11.094   3.179
     H       13.884  11.212   4.202
     O       15.600  10.289   1.843
     H       14.881  10.571   2.409
     H       16.370  10.738   2.191
     O        1.846   5.737   1.843
     H        1.526   6.441   1.279
     H        2.705   5.514   1.484
     O        1.837  11.326   3.457
     H        2.480  10.971   4.071
     H        1.487  12.100   3.897
     O        5.110  12.994   4.917
     H        4.314  13.391   5.270
     H        5.823  13.439   5.375
     O        3.643  11.113  14.969
     H        4.521  11.271  14.622
     H        3.763  11.080  15.918
     O        6.227  13.934   2.439
     H        5.362  14.259   2.188
     H        6.105  13.580   3.320
     O        3.747   8.107   1.794
     H        4.074   7.210   1.730
     H        2.850   8.060   1.462
     O       11.220  11.190   6.083
     H       10.772  10.398   6.381
     H       10.849  11.365   5.219
     O        3.143  14.746   5.750
     H        2.271  14.745   5.356
     H        3.626  15.412   5.261
     O        4.007  11.651   9.014
     H        3.428  12.327   8.661
     H        3.743  11.563   9.930
     O        3.254   2.616  12.093
     H        2.883   2.935  11.271
     H        4.006   2.087  11.828
     O        3.174   4.962  14.288
     H        3.192   4.279  13.618
     H        3.124   4.485  15.116
     O        6.077  15.321   8.979
     H        6.046  16.276   8.920
     H        6.583  15.145   9.772
     O       12.567   7.885   2.600
     H       13.487   7.682   2.771
     H       12.177   7.979   3.469
     O        0.666   7.531   7.471
     H       -0.014   7.791   6.849
     H        1.349   8.194   7.371
     O       11.370   7.661  12.597
     H       11.724   8.277  13.239
     H       11.883   6.863  12.722
     O       10.835   0.530   1.628
     H       10.765  -0.422   1.562
     H       11.437   0.776   0.926
     O        1.266   7.853  15.956
     H        2.034   7.938  15.391
     H        0.523   8.030  15.378
     O       14.879  13.863   2.878
     H       14.482  12.996   2.962
     H       14.413  14.403   3.517
     O        5.285   0.897  11.822
     H        4.681   0.210  11.540
     H        5.322   0.807  12.775
     O        3.370   2.026   8.080
     H        3.076   2.754   8.627
     H        4.280   1.882   8.341
     O       15.467   0.171   1.356
     H       15.274  -0.592   1.900
     H       15.849   0.807   1.962
     O       10.138   5.543   4.534
     H        9.486   5.535   5.234
     H       10.726   6.264   4.761
     O        1.665   6.434   9.994
     H        1.347   6.753   9.149
     H        1.192   6.958  10.641
     O        7.796   9.738  10.372
     H        7.345  10.347   9.787
     H        7.893  10.221  11.192
     O        7.434   2.724   3.889
     H        7.868   3.406   3.377
     H        7.881   1.915   3.639
     O       12.965  15.850   9.678
     H       12.897  15.318   8.886
     H       12.057  16.015   9.935
     O       15.265   7.345   3.030
     H       15.870   6.649   3.287
     H       15.788   7.925   2.476
     O        3.816  10.562   5.367
     H        4.334   9.773   5.206
     H        4.448  11.278   5.317
     O       11.729   1.198   4.044
     H       11.519   1.110   3.114
     H       11.726   2.142   4.202
     O        6.536   2.180   0.701
     H        7.069   2.173  -0.093
     H        7.079   1.747   1.359
     O        3.270   3.405   0.445
     H        3.009   2.608  -0.017
     H        4.150   3.217   0.769
     O       11.051   9.265   0.571
     H       11.661   8.654   0.984
     H       10.240   8.767   0.473
     O        7.851  11.874   1.155
     H        7.703  11.204   1.823
     H        7.288  12.602   1.416
     O        9.875   9.181   6.978
     H        9.222   9.563   6.391
     H        9.369   8.627   7.572
     O        9.862  14.904  13.921
     H       10.044  14.063  14.341
     H        8.915  15.014  14.006
     O       12.959  14.336   7.239
     H       12.026  14.124   7.223
     H       13.109  14.821   6.428
     O       13.130   5.466  13.133
     H       13.675   5.070  12.453
     H       13.027   4.778  13.790
     O        1.231  13.755   4.245
     H        0.610  13.814   3.519
     H        0.687  13.584   5.013
     O        9.202  15.289   6.368
     H        9.627  15.279   5.510
     H        9.686  14.644   6.883
     &END COORD
     &KIND C
       BASIS_SET TZVP-GTH-q4
       POTENTIAL GTH-PBE-q4
     &END KIND
     &KIND N
       BASIS_SET DZVP-GTH-q5
       POTENTIAL GTH-PBE-q5
     &END KIND
     &KIND H
       BASIS_SET DZVP-GTH-q1
       MASS     2.0000000000000000E+00
       POTENTIAL GTH-PBE-q1
     &END KIND
     &KIND O
       BASIS_SET DZVP-GTH-q6
       POTENTIAL GTH-PBE-q6
     &END KIND
     &TOPOLOGY
       NUMBER_OF_ATOMS  402 
       MULTIPLE_UNIT_CELL  1 1 1
     &END TOPOLOGY
   &END SUBSYS
 &END FORCE_EVAL
#####################################################################

