# Units: time:		fs
#        length:	Angstrom
#        mass: 		amu
#        temperature:   K
#####################################################################
 &GLOBAL
   PRINT_LEVEL  LOW
   PROJECT_NAME guaiacol_water
   RUN_TYPE  MD
   WALLTIME 5760000
 &END GLOBAL
#####################################################################
 &MOTION
   &MD
     ENSEMBLE  NVT
     STEPS    100000
     TIMESTEP        0.5   
     TEMPERATURE     300.
     COMVEL_TOL     1.00E-03
     INITIALIZATION_METHOD  DEFAULT
     &THERMOSTAT
       TYPE  CSVR
       &CSVR
         TIMECON     9.9999999999999986E+01
       &END CSVR
     &END THERMOSTAT
     &AVERAGES  T
     &END AVERAGES
   &END MD
   &PRINT
     &RESTART  SILENT
       &EACH
         MD  100
       &END EACH
     &END RESTART
   &END PRINT
 &END MOTION
#####################################################################
 &FORCE_EVAL
   METHOD  QS
   &DFT
     BASIS_SET_FILE_NAME ./GTH_BASIS_SETS
     POTENTIAL_FILE_NAME ./POTENTIAL
     &SCF
       MAX_SCF  150
       SCF_GUESS  RESTART
       &OT  T
         MINIMIZER  DIIS
       &END OT
       &PRINT
         &RESTART  SILENT
           &EACH
             MD  100
           &END EACH
         &END RESTART
       &END PRINT
     &END SCF
     &QS
       EPS_DEFAULT     9.9999999999999998E-13
       EPS_GVG_RSPACE     9.9999999999999995E-07
       EPS_PGF_ORB     9.9999999999999995E-07
     &END QS
     &MGRID
       NGRIDS  6
       CUTOFF     3.0000000000000000E+02
     &END MGRID
     &XC
       DENSITY_CUTOFF     1.0000000000000000E-10
       GRADIENT_CUTOFF     1.0000000000000000E-10
       TAU_CUTOFF     1.0000000000000000E-10
       &XC_FUNCTIONAL  NO_SHORTCUT
         &PBE  T
         &END PBE
       &END XC_FUNCTIONAL
       &VDW_POTENTIAL
         POTENTIAL_TYPE  PAIR_POTENTIAL
         &PAIR_POTENTIAL
           R_CUTOFF     8.0000000000000000E+00
           TYPE  DFTD3
           PARAMETER_FILE_NAME ./dftd3.dat
           REFERENCE_FUNCTIONAL PBE
           EPS_CN     1.0000000000000000E-02
           CALCULATE_C9_TERM  T
           REFERENCE_C9_TERM  T
           LONG_RANGE_CORRECTION  T
         &END PAIR_POTENTIAL
       &END VDW_POTENTIAL
     &END XC
     &REAL_TIME_PROPAGATION
       INITIAL_WFN  SCF_WFN
     &END REAL_TIME_PROPAGATION
   &END DFT
   &SUBSYS
     &CELL
       A    16.0720000000000000E+00    0.0000000000000000E+00   0.0000000000000000E+00
       B     0.0000000000000000E+00   16.0720000000000000E+00   0.0000000000000000E+00
       C     0.0000000000000000E+00    0.0000000000000000E+00  16.0720000000000000E+00
       MULTIPLE_UNIT_CELL  1 1 1
     &END CELL
     &COORD
     O       10.518   6.616   9.582
     H        9.609   6.504   9.858
     H       10.852   5.723   9.488
     O       10.747  10.608   9.093
     H       11.670  10.860   9.089
     H       10.697   9.871   8.483
     O       11.040   4.407   6.566
     H       10.307   3.983   6.118
     H       11.723   4.472   5.898
     O        3.830  15.305   9.989
     H        3.336  14.486  10.034
     H        3.806  15.649  10.882
     O        2.081  -0.188   7.807
     H        2.333   0.717   7.626
     H        2.706  -0.485   8.467
     O       13.015   6.542   0.778
     H       12.493   7.238   0.378
     H       12.424   6.133   1.410
     O       10.254  13.590   6.972
     H       10.485  13.102   7.762
     H        9.354  13.325   6.781
     O        0.661  14.405  11.438
     H        1.291  14.966  11.889
     H        0.149  14.005  12.141
     O        8.268   7.140   2.518
     H        7.326   7.297   2.582
     H        8.625   7.485   3.336
     O        1.476   4.473   5.492
     H        0.655   4.433   5.982
     H        1.366   3.837   4.785
     O       13.483   4.579  14.847
     H       12.931   3.813  15.000
     H       13.433   5.078  15.663
     O        9.297   8.110   5.080
     H        9.068   9.031   5.208
     H        8.524   7.628   5.372
     O       14.223   4.953  12.266
     H       14.577   4.069  12.171
     H       13.802   4.951  13.126
     O        8.499  12.157   9.717
     H        7.762  11.564   9.863
     H        9.251  11.578   9.588
     O       15.563   7.111   2.068
     H       14.680   7.028   1.709
     H       15.843   7.992   1.818
     O        4.835  12.262   6.762
     H        4.186  12.934   6.554
     H        4.467  11.798   7.514
     O        9.666   6.845  14.091
     H        8.753   6.785  13.809
     H        9.650   7.464  14.821
     O        8.420  15.194  12.277
     H        8.333  15.365  11.340
     H        9.327  14.908  12.386
     O       15.050   1.405   4.334
     H       14.707   0.624   3.899
     H       14.585   1.438   5.170
     O       14.597   7.729  14.507
     H       15.538   7.569  14.569
     H       14.196   6.885  14.716
     O        1.774   2.634  13.817
     H        1.027   2.606  14.413
     H        2.351   3.303  14.186
     O        4.901   0.405  14.240
     H        5.022  -0.397  14.748
     H        5.539   0.338  13.530
     O       13.078   4.819   4.792
     H       13.686   5.551   4.893
     H       13.484   4.260   4.129
     O       14.759  13.815  13.495
     H       14.468  13.141  12.880
     H       13.950  14.177  13.855
     O       13.316  15.479   3.040
     H       13.018  15.181   3.900
     H       13.873  14.770   2.720
     O       11.131  10.754   0.784
     H       11.752  10.122   1.146
     H       11.062  11.433   1.455
     O        3.376   6.334   2.474
     H        2.616   6.359   1.893
     H        4.112   6.593   1.919
     O        1.332  11.291  12.328
     H        1.860  10.494  12.379
     H        0.626  11.071  11.720
     O       12.041   8.838   2.870
     H       11.780   7.949   3.111
     H       12.170   9.286   3.706
     O       11.930   4.383   9.048
     H       12.627   5.039   9.065
     H       11.605   4.401   8.147
     O        2.721   0.032  12.588
     H        2.324   0.895  12.711
     H        3.373  -0.033  13.285
     O        1.609   3.917   9.149
     H        2.143   3.389   8.555
     H        0.793   3.425   9.238
     O        9.815   8.346   0.252
     H        9.236   8.177   0.995
     H       10.316   9.120   0.509
     O       13.317  14.556   8.019
     H       13.082  14.880   7.149
     H       14.261  14.403   7.971
     O        2.633  13.771   5.931
     H        2.530  14.544   6.486
     H        1.741  13.537   5.676
     O       12.596  14.621  14.869
     H       12.900  13.822  15.301
     H       11.939  14.319  14.242
     O       13.373  12.657  11.307
     H       13.960  12.068  10.833
     H       13.574  13.526  10.960
     O       14.907  13.563   1.838
     H       14.478  13.001   1.193
     H       15.396  12.958   2.396
     O        3.503   4.661  15.012
     H        3.856   3.883  15.444
     H        2.743   4.905  15.541
     O        4.918   7.089   0.433
     H        4.360   7.665  -0.089
     H        5.170   6.389  -0.169
     O        8.593  12.296   3.274
     H        8.208  11.791   3.990
     H        8.270  13.188   3.410
     O       11.049   1.390   4.126
     H       11.160   1.842   3.290
     H       10.315   1.839   4.546
     O        9.758   4.298  15.859
     H        9.169   3.603  15.566
     H        9.659   4.988  15.203
     O        2.442  12.903   9.686
     H        1.690  13.054   9.113
     H        2.066  12.846  10.564
     O       12.401  15.230  10.658
     H       12.687  16.142  10.618
     H       12.545  14.894   9.774
     O        2.954   8.695   6.713
     H        2.600   8.006   6.151
     H        2.732   8.417   7.602
     O        2.882  13.459   0.493
     H        3.820  13.582   0.349
     H        2.623  12.803  -0.155
     O       11.422   5.902   2.903
     H       10.714   5.270   2.779
     H       11.963   5.524   3.596
     O        5.893  10.588  10.924
     H        6.387   9.950  10.409
     H        5.151  10.824  10.367
     O        9.498  11.646  14.499
     H       10.027  11.418  13.734
     H        9.964  11.256  15.238
     O        0.787  10.308   5.353
     H        1.132  10.277   4.461
     H        1.547  10.142   5.911
     O        3.867  10.748   9.065
     H        3.332   9.965   9.196
     H        3.275  11.477   9.252
     O       15.891  12.870   5.427
     H       16.377  12.078   5.654
     H       15.166  12.559   4.885
     O       14.894   8.993   6.691
     H       14.899   8.201   6.153
     H       15.575   9.547   6.308
     O        8.111  10.592   5.534
     H        8.095  11.467   5.923
     H        7.199  10.303   5.557
     O        1.381   5.864   0.307
     H        0.781   6.173   0.986
     H        1.141   6.366  -0.471
     O        7.115  14.999   3.730
     H        6.170  14.948   3.584
     H        7.476  15.248   2.880
     O        8.118   2.011  16.131
     H        8.366   1.236  16.635
     H        7.564   1.672  15.428
     O        6.336  12.035   1.820
     H        7.115  12.182   2.356
     H        5.613  12.374   2.349
     O        6.804   6.591   5.408
     H        6.618   6.201   6.262
     H        6.315   6.052   4.786
     O        2.997   0.492   1.965
     H        2.358  -0.171   1.705
     H        2.559   0.990   2.656
     O        9.108   4.281   2.691
     H        8.570   5.066   2.797
     H        9.265   4.223   1.748
     O       -0.012   0.434   9.708
     H        0.872   0.330   9.357
     H       -0.141  -0.333  10.266
     O       13.380   2.137   6.750
     H       13.266   1.469   7.426
     H       12.517   2.216   6.344
     O        1.202   7.190  14.050
     H        1.807   7.925  14.142
     H        1.172   7.021  13.108
     O        6.700   0.766   5.722
     H        6.580   0.188   6.476
     H        6.815   0.171   4.981
     O       15.041   6.973   4.848
     H       15.903   6.776   5.215
     H       15.208   7.151   3.923
     O        2.712   8.404   9.370
     H        1.776   8.258   9.503
     H        3.111   7.545   9.510
     O        0.903   9.395   1.299
     H        0.401  10.012   0.766
     H        1.490   9.947   1.816
     O        3.919   2.138   0.149
     H        4.245   1.541  -0.524
     H        3.590   1.563   0.840
     O       14.280   5.695   9.335
     H       14.540   5.174  10.094
     H       15.069   6.180   9.094
     O        1.785  11.792   2.468
     H        2.424  11.549   3.138
     H        2.172  12.551   2.031
     O        5.959   2.918   2.124
     H        5.226   2.710   1.545
     H        6.710   2.474   1.729
     O        0.582  15.110   0.591
     H       -0.156  14.636   0.974
     H        1.317  14.501   0.654
     O       13.912   8.714  11.451
     H       14.394   8.192  12.091
     H       13.000   8.445  11.560
     O        5.833   9.127   2.403
     H        5.657   8.613   1.615
     H        6.083   9.991   2.076
     O        4.607  14.274   3.222
     H        4.077  14.968   2.830
     H        4.133  14.029   4.016
     O        5.446  13.870  15.160
     H        5.244  13.454  14.322
     H        6.393  13.767  15.257
     O       11.235  12.754   2.603
     H       10.353  12.646   2.960
     H       11.305  13.691   2.418
     O        0.011  13.755   7.986
     H       -0.229  13.631   7.068
     H        0.529  14.560   7.993
     O        4.042  11.255  14.726
     H        4.977  11.188  14.918
     H        4.001  11.418  13.783
     O        5.789   8.947   6.769
     H        4.846   8.879   6.922
     H        6.022   8.125   6.337
     O        5.974   9.074  13.128
     H        6.448   9.689  13.689
     H        5.785   9.572  12.333
     O       13.226   1.768   9.747
     H       14.156   1.912   9.570
     H       12.802   2.583   9.478
     O        2.054   7.097   4.772
     H        2.596   7.122   3.984
     H        2.023   6.171   5.013
     O        7.826   6.788  10.003
     H        7.612   6.218   9.264
     H        7.858   7.667   9.626
     O        0.480   6.288  11.452
     H       -0.169   5.689  11.821
     H        0.981   5.750  10.838
     O       13.002  10.349  14.182
     H       12.468  10.820  13.542
     H       13.300   9.567  13.717
     O        7.702  13.204   6.152
     H        7.752  14.001   5.625
     H        7.040  13.397   6.816
     O       16.097   7.836   9.054
     H       15.682   7.867   9.916
     H       15.573   8.428   8.514
     O        1.475   2.354   3.516
     H        0.700   2.011   3.961
     H        1.128   2.825   2.759
     O        4.402   6.018  12.492
     H        3.882   5.729  13.242
     H        5.298   6.063  12.825
     O       15.684   1.727  15.347
     H       14.740   1.679  15.498
     H       16.017   0.881  15.645
     O       12.628  10.000   5.957
     H       13.493   9.616   6.099
     H       12.039   9.466   6.490
     O        8.354  14.766   9.490
     H        8.473  13.821   9.585
     H        9.217  15.093   9.235
     O       15.261   4.236   7.098
     H       14.563   3.582   7.068
     H       14.934   4.909   7.694
     O        5.270   4.799   4.076
     H        5.706   4.176   3.494
     H        4.557   5.160   3.549
     O       13.390  11.538   8.358
     H       13.396  12.424   7.997
     H       13.141  10.980   7.621
     O        6.286  13.294  12.398
     H        7.047  13.854  12.243
     H        6.417  12.544  11.818
     O        2.992   2.607   7.122
     H        3.871   2.931   6.927
     H        2.422   3.081   6.516
     O       15.147  10.887  10.372
     H       14.907  10.907   9.446
     H       14.625  10.174  10.740
     O       11.125   8.014  11.844
     H       10.821   7.467  12.568
     H       11.078   7.444  11.077
     O       11.298  14.976   1.081
     H       11.609  14.990   0.175
     H       12.043  15.287   1.595
     O        2.885   8.964  12.153
     H        3.763   8.642  12.353
     H        2.784   8.819  11.212
     O       10.867  11.077  12.142
     H       10.709  10.133  12.142
     H       11.219  11.262  11.271
     O        8.514  15.856   1.484
     H        9.468  15.819   1.549
     H        8.296  15.235   0.789
     O       10.979  14.101  12.750
     H       10.796  13.194  12.504
     H       11.615  14.402  12.101
     O       11.461   2.303   1.569
     H       11.018   2.876   0.943
     H       12.188   2.829   1.904
     O        6.053   5.492   7.749
     H        5.917   4.611   7.399
     H        5.355   5.604   8.394
     O       -0.178   2.808  11.402
     H       -0.167   1.955  10.968
     H        0.531   2.760  12.043
     O        6.975  10.929  15.302
     H        6.952  11.152  16.233
     H        7.894  11.027  15.055
     O       10.934   8.420   7.445
     H       10.453   8.188   6.650
     H       10.896   7.631   7.986
     O        7.190   6.468  13.088
     H        6.749   7.295  13.280
     H        7.384   6.512  12.151
     O        8.390  14.429  15.160
     H        8.825  13.581  15.248
     H        8.376  14.596  14.218
     O       13.949   3.517   2.523
     H       14.257   2.768   3.034
     H       14.689   3.746   1.962
     O       12.884   1.279  15.603
     H       12.722   0.347  15.459
     H       12.274   1.523  16.299
     O        8.971   2.795   5.179
     H        8.106   2.419   5.343
     H        8.935   3.095   4.271
     O        7.510   9.339   9.025
     H        7.030   9.409   8.199
     H        8.411   9.570   8.799
     O        2.939   8.814  15.358
     H        2.325   8.811  16.092
     H        3.153   9.738  15.228
     O       13.395  11.999   4.244
     H       12.994  11.271   4.719
     H       12.660  12.442   3.820
     O       13.370  12.304  16.121
     H       13.584  11.710  15.402
     H       12.560  11.952  16.490
     O        6.057  15.109   8.222
     H        6.902  15.034   8.665
     H        5.410  15.027   8.923
     O       12.243  15.251   5.680
     H       11.628  14.660   6.114
     H       11.688  15.856   5.188
     O        0.393   3.535   1.315
     H        0.708   4.297   0.828
     H        0.207   2.880   0.641
     O        5.406   3.126   6.163
     H        5.320   3.675   5.383
     H        6.026   2.443   5.908
     O        3.611  10.073   3.943
     H        4.398   9.908   3.425
     H        3.787   9.658   4.787
     O        3.649   5.988   9.953
     H        3.853   6.112  10.880
     H        3.071   5.226   9.934
     O        0.330  11.394  15.028
     H        0.250  12.242  14.593
     H        0.973  10.915  14.504
     H        4.691   2.729  11.742
     C        5.684   2.633  11.256
     C        5.954   2.263   9.949
     H        5.087   1.911   9.327
     C        7.274   2.198   9.455
     C        8.312   2.528  10.202
     H        9.325   2.464   9.849
     C        8.114   2.928  11.562
     C        6.760   2.945  12.080
     O        6.557   3.284  13.380
     O        9.152   3.266  12.434
     C       10.430   3.729  12.040
     H       10.995   3.982  12.941
     H       11.027   2.919  11.597
     H       10.433   4.588  11.365
     H        7.271   3.895  13.559
     H        7.421   1.873   8.431
     &END COORD
     &KIND C
       BASIS_SET TZVP-GTH-q4
       POTENTIAL GTH-PBE-q4
     &END KIND
     &KIND O
       BASIS_SET DZVP-GTH-q6
       POTENTIAL GTH-PBE-q6
     &END KIND
     &KIND H
       BASIS_SET DZVP-GTH-q1
       MASS     2.0000000000000000E+00
       POTENTIAL GTH-PBE-q1
     &END KIND
     &TOPOLOGY
       NUMBER_OF_ATOMS  401 
       MULTIPLE_UNIT_CELL  1 1 1
     &END TOPOLOGY
   &END SUBSYS
 &END FORCE_EVAL
#####################################################################

