# Units: time:		fs
#        length:	Angstrom
#        mass: 		amu
#        temperature:   K
#####################################################################
 &GLOBAL
   PRINT_LEVEL  LOW
   PROJECT_NAME pDMB_water
   RUN_TYPE  MD
   WALLTIME 5760000  # 1600 hours
 &END GLOBAL
#####################################################################
 &MOTION
   &MD
     ENSEMBLE  NVT
     STEPS    100000
     TIMESTEP        0.5   
     TEMPERATURE     300.
     COMVEL_TOL     1.00E-03
     INITIALIZATION_METHOD  DEFAULT
     &THERMOSTAT
       TYPE  CSVR
       &CSVR
         TIMECON     9.9999999999999986E+01
       &END CSVR
     &END THERMOSTAT
     &AVERAGES  T
     &END AVERAGES
   &END MD
   &PRINT
     &RESTART  SILENT
       &EACH
         MD  100
       &END EACH
     &END RESTART
   &END PRINT
 &END MOTION
#####################################################################
 &FORCE_EVAL
   METHOD  QS
   &DFT
     BASIS_SET_FILE_NAME ./GTH_BASIS_SETS
     POTENTIAL_FILE_NAME ./POTENTIAL
     &SCF
       MAX_SCF  150
       SCF_GUESS  RESTART
       &OT  T
         MINIMIZER  DIIS
       &END OT
       &PRINT
         &RESTART  SILENT
           &EACH
             MD  100
           &END EACH
         &END RESTART
       &END PRINT
     &END SCF
     &QS
       EPS_DEFAULT     9.9999999999999998E-13
       EPS_GVG_RSPACE     9.9999999999999995E-07
       EPS_PGF_ORB     9.9999999999999995E-07
     &END QS
     &MGRID
       NGRIDS  6
       CUTOFF     3.0000000000000000E+02
     &END MGRID
     &XC
       DENSITY_CUTOFF     1.0000000000000000E-10
       GRADIENT_CUTOFF     1.0000000000000000E-10
       TAU_CUTOFF     1.0000000000000000E-10
       &XC_FUNCTIONAL  NO_SHORTCUT
         &PBE  T
         &END PBE
       &END XC_FUNCTIONAL
       &VDW_POTENTIAL
         POTENTIAL_TYPE  PAIR_POTENTIAL
         &PAIR_POTENTIAL
           R_CUTOFF     8.0000000000000000E+00
           TYPE  DFTD3
           PARAMETER_FILE_NAME ./dftd3.dat
           REFERENCE_FUNCTIONAL PBE
           EPS_CN     1.0000000000000000E-02
           CALCULATE_C9_TERM  T
           REFERENCE_C9_TERM  T
           LONG_RANGE_CORRECTION  T
         &END PAIR_POTENTIAL
       &END VDW_POTENTIAL
     &END XC
     &REAL_TIME_PROPAGATION
       INITIAL_WFN  SCF_WFN
     &END REAL_TIME_PROPAGATION
   &END DFT
   &SUBSYS
     &CELL
       A    16.3160000000000000E+00    0.0000000000000000E+00   0.0000000000000000E+00
       B     0.0000000000000000E+00   16.3160000000000000E+00   0.0000000000000000E+00
       C     0.0000000000000000E+00    0.0000000000000000E+00  16.3160000000000000E+00
       MULTIPLE_UNIT_CELL  1 1 1
     &END CELL
     &COORD
     O        3.783   6.291  12.519
     H        4.592   6.619  12.912
     H        3.627   5.454  12.956
     O        5.254   8.669   3.448
     H        5.246   9.595   3.203
     H        4.918   8.655   4.344
     O       15.761   0.190   5.019
     H       15.969   0.654   4.208
     H       15.304  -0.601   4.733
     O        2.033   8.651  13.521
     H        2.501   7.823  13.417
     H        2.324   8.987  14.368
     O        1.033   4.601  15.510
     H        0.774   5.436  15.122
     H        1.859   4.382  15.081
     O        1.542  11.057   9.331
     H        1.133  10.718   8.535
     H        1.363  11.997   9.312
     O       16.177  10.914   4.789
     H       16.226  10.499   5.651
     H       16.509  11.801   4.931
     O        0.122   7.026  14.718
     H       -0.737   7.218  14.340
     H        0.717   7.638  14.283
     O       10.643   3.620   4.518
     H       10.030   3.099   3.999
     H       10.800   4.402   3.988
     O        1.464  15.169   6.805
     H        1.639  14.534   6.110
     H        0.858  15.796   6.411
     O       11.009  11.448  15.722
     H       10.858  11.941  16.528
     H       11.588  12.007  15.204
     O        0.205   9.119   2.857
     H        0.103   9.725   3.591
     H        0.852   8.482   3.159
     O       13.797   9.877   6.464
     H       13.261   9.592   5.723
     H       14.099  10.752   6.219
     O        4.402  16.113  12.481
     H        5.159  15.529  12.443
     H        4.684  16.837  13.040
     O        8.323  12.915  14.489
     H        9.180  12.858  14.067
     H        7.745  13.270  13.814
     O        5.810  10.159  15.800
     H        4.920   9.845  15.642
     H        5.697  10.925  16.364
     O        1.396   0.296  10.533
     H        2.168   0.080  10.010
     H        0.997   1.037  10.077
     O       14.150   5.608  11.424
     H       14.677   4.895  11.062
     H       13.271   5.458  11.076
     O       15.682   3.510  10.669
     H       15.804   3.003   9.866
     H       16.570   3.728  10.952
     O       16.148   0.046  14.659
     H       15.872   0.820  14.168
     H       16.919  -0.274  14.190
     O        8.765   2.231   2.794
     H        7.915   2.569   2.513
     H        8.647   1.282   2.828
     O       16.191   7.556  10.759
     H       15.465   6.960  10.942
     H       15.787   8.423  10.726
     O        7.996   4.130  12.163
     H        7.167   4.111  11.684
     H        7.836   3.597  12.941
     O        8.169   8.887   8.799
     H        8.111   9.207   7.899
     H        8.785   9.483   9.226
     O       10.775   5.873   2.542
     H       11.092   5.664   1.663
     H       11.136   6.740   2.727
     O       12.814  13.233  14.410
     H       13.426  12.559  14.115
     H       12.251  13.393  13.653
     O        2.771  11.055  11.834
     H        2.569  10.236  12.286
     H        2.412  10.939  10.954
     O        6.306   7.450  13.135
     H        6.441   8.397  13.138
     H        7.182   7.083  13.016
     O       12.036  15.772   4.395
     H       12.371  16.662   4.286
     H       12.820  15.227   4.461
     O        7.106   9.631   6.053
     H        7.665   9.131   5.458
     H        6.220   9.500   5.715
     O        5.221  13.791   8.777
     H        5.963  14.389   8.693
     H        4.579  14.276   9.297
     O        4.439   4.936   0.414
     H        4.417   4.833  -0.537
     H        4.126   5.828   0.566
     O        0.221   1.728   8.596
     H       -0.566   1.204   8.443
     H        0.567   1.902   7.721
     O        8.722   6.170  13.792
     H        9.582   6.454  13.483
     H        8.520   5.397  13.265
     O        4.474   7.687   8.859
     H        4.738   8.466   9.349
     H        3.547   7.574   9.071
     O        1.596  16.094   0.669
     H        1.219  15.308   1.066
     H        0.943  16.375   0.027
     O        8.798  14.185  10.518
     H        8.859  15.074  10.167
     H        9.677  13.995  10.846
     O       14.476  12.625   7.060
     H       15.121  12.621   7.767
     H       13.669  12.934   7.473
     O        6.830   5.019   4.268
     H        7.232   5.203   5.117
     H        7.340   5.534   3.643
     O       10.174  10.620   9.634
     H       10.993  10.140   9.510
     H        9.948  10.477  10.553
     O        8.239   0.550  12.261
     H        8.946   1.065  11.873
     H        7.482   0.722  11.702
     O        3.069   3.985   9.093
     H        3.961   4.208   9.360
     H        2.622   4.828   9.018
     O        8.680   8.123   4.261
     H        8.117   7.701   3.612
     H        8.726   7.497   4.983
     O        4.526   9.192   6.513
     H        4.629   8.563   7.227
     H        4.363  10.027   6.951
     O       11.737  13.153   8.046
     H       10.808  12.968   8.184
     H       12.146  12.972   8.893
     O        5.339  12.069  11.400
     H        4.478  11.774  11.696
     H        5.618  11.404  10.771
     O        6.774  14.314   4.039
     H        7.403  13.807   4.552
     H        7.304  14.749   3.371
     O       10.772   8.801  16.148
     H        9.837   8.654  16.287
     H       10.856   9.751  16.063
     O        5.956   1.127  10.467
     H        5.640   1.995  10.217
     H        5.230   0.740  10.957
     O       12.164   0.289  12.735
     H       11.610   0.733  12.092
     H       13.052   0.581  12.529
     O        3.773   3.404   6.325
     H        3.963   4.215   5.854
     H        3.627   3.681   7.230
     O        9.285   3.327   6.959
     H        9.780   2.657   7.431
     H        9.829   3.539   6.201
     O       12.194   9.637   4.326
     H       11.414  10.191   4.279
     H       12.219   9.185   3.483
     O       15.194   7.849   0.835
     H       15.716   7.477   0.124
     H       15.832   8.295   1.392
     O        7.305   1.962   5.589
     H        7.058   2.675   5.000
     H        8.013   2.325   6.121
     O        1.039  10.708   0.789
     H        0.242  10.801   0.267
     H        0.779  10.159   1.529
     O        1.294   2.307   6.103
     H        2.155   2.694   6.265
     H        1.453   1.640   5.435
     O       14.853  10.282  15.950
     H       14.323  10.838  16.521
     H       14.759   9.403  16.317
     O        0.892  13.486   1.887
     H        1.034  13.477   2.834
     H        1.017  12.577   1.617
     O        1.685  15.279  13.031
     H        1.450  15.447  12.119
     H        2.567  15.640  13.122
     O        2.095   6.630   9.178
     H        1.517   6.999   9.846
     H        1.855   7.089   8.373
     O        6.841   3.637   0.865
     H        5.980   4.054   0.880
     H        7.436   4.301   1.213
     O        2.163   2.792  11.653
     H        2.008   1.854  11.539
     H        2.489   3.087  10.803
     O        5.618   4.415  10.489
     H        5.062   4.939  11.065
     H        6.059   5.058   9.933
     O        3.452  16.198   8.896
     H        3.010  15.717   8.197
     H        3.998  16.837   8.439
     O        8.391   5.936   6.284
     H        8.834   5.136   6.569
     H        8.062   6.329   7.092
     O       14.241  14.121   4.522
     H       14.328  13.671   5.363
     H       14.187  13.415   3.877
     O       10.249   5.201  16.264
     H       10.443   4.268  16.352
     H        9.564   5.242  15.597
     O       13.408  12.913  10.821
     H       14.131  12.376  11.144
     H       13.817  13.741  10.571
     O       14.219   1.182   1.431
     H       13.470   1.320   2.011
     H       14.201   0.245   1.235
     O       12.009  15.592   7.111
     H       11.811  15.635   6.176
     H       11.795  14.693   7.360
     O        2.999   9.519  15.892
     H        3.353   8.925  16.554
     H        2.281   9.972  16.335
     O        4.122   0.612   0.474
     H        3.286   0.147   0.494
     H        4.076   1.219   1.213
     O        8.080   6.266   2.405
     H        7.911   6.502   1.493
     H        8.992   5.974   2.411
     O        0.881  12.626  12.947
     H        1.598  11.999  12.852
     H        1.315  13.467  13.089
     O        9.969   0.907   8.441
     H       10.565   0.331   7.963
     H        9.098   0.551   8.265
     O        8.215  12.488   5.737
     H        7.440  11.976   5.969
     H        8.719  12.540   6.549
     O        7.685   2.997  14.766
     H        8.149   2.168  14.885
     H        7.280   3.169  15.616
     O       11.044   7.765  13.461
     H       12.000   7.716  13.475
     H       10.812   8.165  14.299
     O       15.330  10.143  10.626
     H       15.267  10.391  11.548
     H       16.186  10.469  10.347
     O       16.428   9.690   7.401
     H       15.474   9.729   7.336
     H       16.665   8.873   6.963
     O        5.828   9.577  10.437
     H        6.594   9.352   9.909
     H        6.077   9.344  11.332
     O        7.615  13.107   0.934
     H        7.618  12.965  -0.013
     H        7.254  13.987   1.043
     O        1.179   4.524   1.928
     H        0.399   4.026   2.174
     H        1.191   4.494   0.971
     O        9.242  12.585   8.142
     H        9.596  11.859   8.657
     H        8.898  13.196   8.794
     O        4.762   7.775   0.875
     H        5.598   7.720   0.412
     H        4.984   8.147   1.728
     O       12.421   8.178   1.910
     H       13.320   8.051   1.605
     H       11.913   8.313   1.110
     O       11.264  14.864   1.693
     H       11.647  15.104   2.537
     H       11.116  13.921   1.756
     O       11.425   2.654   0.979
     H       10.557   2.449   1.325
     H       11.658   1.893   0.448
     O       10.528   1.787  10.900
     H       10.437   2.739  10.948
     H       10.093   1.546  10.082
     O        9.098   9.766  12.022
     H        9.741   9.349  12.595
     H        8.419  10.087  12.616
     O       10.310  12.333   1.944
     H        9.444  12.454   1.554
     H       10.146  11.819   2.735
     O        5.122  -0.003   5.235
     H        5.579   0.783   5.536
     H        5.805  -0.538   4.832
     O       14.339  12.676   1.680
     H       14.037  13.502   1.300
     H       15.291  12.765   1.720
     O        3.376   3.060   2.619
     H        2.536   3.407   2.320
     H        4.030   3.586   2.159
     O        6.433  10.275  13.243
     H        5.938  11.005  12.872
     H        6.197  10.272  14.171
     O        7.267  -0.310   8.285
     H        6.811   0.276   8.889
     H        7.169   0.106   7.428
     O        6.799   6.367   8.805
     H        7.294   7.179   8.919
     H        5.883   6.631   8.886
     O       12.867   5.609  15.729
     H       13.148   4.695  15.680
     H       11.943   5.563  15.974
     O       14.723  11.256  13.136
     H       14.637  10.773  13.958
     H       15.557  11.719  13.216
     O        1.731   6.771   3.801
     H        2.619   6.491   4.024
     H        1.355   6.026   3.332
     O        5.675  11.481   2.112
     H        6.424  12.041   1.906
     H        5.334  11.830   2.935
     O       14.525   2.679  15.336
     H       14.292   2.006  15.975
     H       15.331   3.066  15.677
     O       12.944   2.093   3.791
     H       13.590   2.513   4.358
     H       12.223   2.722   3.742
     O        0.381   1.790   2.712
     H       -0.310   1.738   2.052
     H        1.080   1.230   2.373
     O       14.174  15.135  16.221
     H       14.941  15.283  15.667
     H       13.596  14.589  15.688
     O       14.605   1.665  12.725
     H       14.311   2.135  13.506
     H       14.787   2.353  12.085
     O        8.503   0.409  15.001
     H        9.387   0.152  15.265
     H        8.471   0.227  14.062
     O        9.632  10.715   3.898
     H        9.354   9.803   3.984
     H        9.177  11.173   4.605
     O        5.227   1.854  14.338
     H        6.131   2.145  14.464
     H        4.996   1.427  15.163
     O        1.735  13.667   4.539
     H        2.594  13.285   4.361
     H        1.833  14.593   4.318
     O       15.494  14.747  11.260
     H       15.751  15.666  11.186
     H       16.086  14.385  11.920
     O        0.809   7.301   6.152
     H       -0.069   6.919   6.145
     H        1.117   7.210   5.250
     O        7.957   8.227  16.307
     H        7.563   9.032  15.971
     H        8.118   7.694  15.529
     O       11.073  13.834  12.121
     H       11.528  14.667  12.252
     H       11.709  13.283  11.665
     O       14.449   0.383   7.613
     H       14.882   0.308   6.762
     H       13.529   0.192   7.431
     O        8.614  15.788   2.610
     H        8.149  15.710   1.777
     H        9.526  15.591   2.396
     O        6.417  14.299  12.290
     H        7.326  14.423  12.018
     H        6.183  13.431  11.960
     O        4.030   5.251   4.337
     H        4.938   5.130   4.061
     H        3.582   4.458   4.043
     O       11.271   0.204  15.533
     H       11.689   0.187  14.671
     H       11.807  -0.379  16.071
     O        4.571  12.584   4.517
     H        5.306  13.194   4.456
     H        4.477  12.415   5.455
     O        0.150  13.710   8.812
     H        0.459  14.395   8.218
     H       -0.221  14.186   9.554
     O       12.614   9.625   9.054
     H       13.362   9.436   9.621
     H       12.937   9.464   8.168
     O        6.570  15.652   0.485
     H        5.746  16.100   0.293
     H        7.209  16.068  -0.094
     O        3.271   3.751  14.000
     H        3.949   3.089  14.131
     H        2.717   3.394  13.306
     O        3.911  11.496   7.877
     H        4.279  12.194   8.419
     H        3.012  11.397   8.192
     O       13.779   7.401  13.864
     H       13.362   6.815  14.496
     H       13.788   6.905  13.046
     O        2.826   0.603   4.027
     H        3.643   0.360   4.463
     H        2.961   1.510   3.752
     H       14.587   3.665   7.119
     C       13.716   4.333   7.146
     C       13.548   5.311   6.133
     O       14.428   5.326   5.042
     C       12.549   6.266   6.307
     H       12.327   7.029   5.534
     C       11.753   6.251   7.437
     H       11.009   7.054   7.493
     C       11.924   5.267   8.479
     C       12.953   4.353   8.323
     H       13.165   3.635   9.131
     O       11.327   5.365   9.720
     C        9.941   5.374   9.951
     H        9.740   5.200  11.009
     H        9.570   6.395   9.601
     H        9.445   4.639   9.412
     C       14.181   6.084   3.842
     H       13.883   7.121   4.000
     H       15.039   6.121   3.142
     H       13.411   5.590   3.255
     &END COORD
     &KIND C
       BASIS_SET TZVP-GTH-q4
       POTENTIAL GTH-PBE-q4
     &END KIND
     &KIND O
       BASIS_SET DZVP-GTH-q6
       POTENTIAL GTH-PBE-q6
     &END KIND
     &KIND H
       BASIS_SET DZVP-GTH-q1
       MASS     2.0000000000000000E+00
       POTENTIAL GTH-PBE-q1
     &END KIND
     &TOPOLOGY
       NUMBER_OF_ATOMS  404 
       MULTIPLE_UNIT_CELL  1 1 1
     &END TOPOLOGY
   &END SUBSYS
 &END FORCE_EVAL
#####################################################################

