# Units: time:		fs
#        length:	Angstrom
#        mass: 		amu
#        temperature:   K
#####################################################################
 &GLOBAL
   PRINT_LEVEL  LOW
   PROJECT_NAME aniline_water
   RUN_TYPE  MD
   WALLTIME 5760000  # 1600 hours
 &END GLOBAL
#####################################################################
 &MOTION
   &MD
     ENSEMBLE  NVT
     STEPS    100000
     TIMESTEP        0.5   
     TEMPERATURE     300.
     COMVEL_TOL     1.00E-03
     INITIALIZATION_METHOD  DEFAULT
     &THERMOSTAT
       TYPE  CSVR
       &CSVR
         TIMECON     9.9999999999999986E+01
       &END CSVR
     &END THERMOSTAT
     &AVERAGES  T
     &END AVERAGES
   &END MD
   &PRINT
     &RESTART  SILENT
       &EACH
         MD  100
       &END EACH
     &END RESTART
   &END PRINT
 &END MOTION
#####################################################################
 &FORCE_EVAL
   METHOD  QS
   &DFT
     BASIS_SET_FILE_NAME ./GTH_BASIS_SETS
     POTENTIAL_FILE_NAME ./POTENTIAL
     &SCF
       MAX_SCF  150
       SCF_GUESS  RESTART
       &OT  T
         MINIMIZER  DIIS
       &END OT
       &PRINT
         &RESTART  SILENT
           &EACH
             MD  100
           &END EACH
         &END RESTART
       &END PRINT
     &END SCF
     &QS
       EPS_DEFAULT     9.9999999999999998E-13
       EPS_GVG_RSPACE     9.9999999999999995E-07
       EPS_PGF_ORB     9.9999999999999995E-07
     &END QS
     &MGRID
       NGRIDS  6
       CUTOFF     3.0000000000000000E+02
     &END MGRID
     &XC
       DENSITY_CUTOFF     1.0000000000000000E-10
       GRADIENT_CUTOFF     1.0000000000000000E-10
       TAU_CUTOFF     1.0000000000000000E-10
       &XC_FUNCTIONAL  NO_SHORTCUT
         &PBE  T
         &END PBE
       &END XC_FUNCTIONAL
       &VDW_POTENTIAL
         POTENTIAL_TYPE  PAIR_POTENTIAL
         &PAIR_POTENTIAL
           R_CUTOFF     8.0000000000000000E+00
           TYPE  DFTD3
           PARAMETER_FILE_NAME ./dftd3.dat
           REFERENCE_FUNCTIONAL PBE
           EPS_CN     1.0000000000000000E-02
           CALCULATE_C9_TERM  T
           REFERENCE_C9_TERM  T
           LONG_RANGE_CORRECTION  T
         &END PAIR_POTENTIAL
       &END VDW_POTENTIAL
     &END XC
     &REAL_TIME_PROPAGATION
       INITIAL_WFN  SCF_WFN
     &END REAL_TIME_PROPAGATION
   &END DFT
   &SUBSYS
     &CELL
       A    15.9170000000000000E+00    0.0000000000000000E+00   0.0000000000000000E+00
       B     0.0000000000000000E+00   15.9170000000000000E+00   0.0000000000000000E+00
       C     0.0000000000000000E+00    0.0000000000000000E+00  15.9170000000000000E+00
       MULTIPLE_UNIT_CELL  1 1 1
     &END CELL
     &COORD
     O        4.485  15.366  15.204
     H        4.816  15.242  14.315
     H        5.208  15.097  15.770
     O       10.077   8.711   8.170
     H        9.275   8.358   8.556
     H       10.442   7.982   7.668
     O        2.427   7.652   2.214
     H        2.204   7.342   1.336
     H        3.316   7.329   2.363
     O        2.981  10.173   2.824
     H        3.778  10.391   3.307
     H        3.012   9.221   2.728
     O        5.283   3.517  11.267
     H        4.976   4.423  11.216
     H        6.180   3.549  10.935
     O        0.535   6.283   3.937
     H        1.098   6.850   3.410
     H       -0.352   6.599   3.766
     O       10.532   0.034   3.326
     H       10.993   0.507   4.018
     H       10.500   0.649   2.594
     O        0.868   7.265  15.606
     H        1.272   6.954  14.796
     H        0.848   8.218  15.514
     O       13.678   9.263   1.976
     H       13.769   9.111   1.035
     H       13.586  10.212   2.058
     O        4.059  12.930  10.386
     H        4.536  12.281  10.903
     H        4.659  13.673  10.323
     O       11.576  13.810   2.026
     H       11.300  14.531   2.592
     H       10.758  13.410   1.731
     O        5.479   8.330  10.331
     H        4.940   9.101  10.159
     H        6.000   8.219   9.536
     O       11.428  10.085   5.084
     H       11.794  10.766   4.519
     H       11.862  10.214   5.928
     O        5.861  13.910   7.427
     H        5.298  14.670   7.576
     H        6.416  14.163   6.689
     O        0.916   4.418  11.355
     H        0.328   3.667  11.280
     H        1.281   4.525  10.476
     O        3.427  10.029  13.693
     H        4.147  10.625  13.483
     H        2.949   9.931  12.869
     O        5.573  15.373   3.828
     H        5.150  15.861   4.534
     H        6.393  15.060   4.211
     O       12.983   1.865  15.555
     H       13.218   1.956  16.479
     H       12.429   1.085  15.525
     O        1.301   0.090  10.579
     H        0.909   0.451   9.784
     H        2.207   0.397  10.562
     O       14.922   0.721  11.798
     H       15.749   0.414  11.427
     H       15.175   1.410  12.413
     O        1.371   9.766   5.984
     H        1.742   8.885   6.024
     H        1.231   9.926   5.050
     O       15.071   9.739   7.778
     H       15.233   9.060   8.433
     H       15.786   9.642   7.149
     O        7.975  13.182   8.943
     H        7.329  13.167   8.237
     H        8.727  12.704   8.592
     O        9.722   0.581  10.790
     H        9.173   0.552  11.574
     H       10.598   0.354  11.102
     O        0.169   3.558   7.484
     H        0.193   3.390   6.542
     H        0.205   2.689   7.884
     O        0.743  14.807   2.944
     H        0.694  14.641   2.003
     H        1.588  14.443   3.208
     O       14.610   2.796   2.103
     H       14.661   1.989   2.615
     H       13.876   3.277   2.485
     O        8.334  14.227  13.823
     H        8.102  13.492  13.255
     H        7.896  14.038  14.652
     O        5.851   4.276   3.524
     H        5.044   4.073   3.051
     H        5.644   4.090   4.440
     O        5.399  11.466  12.141
     H        6.205  11.921  11.897
     H        5.688  10.593  12.406
     O       15.513   7.514   9.484
     H       15.799   7.632  10.390
     H       15.314   6.581   9.415
     O        9.127  12.987   1.225
     H        8.974  12.704   2.127
     H        9.557  12.241   0.809
     O       12.117   9.436  15.240
     H       11.997  10.075  14.538
     H       11.480   8.747  15.050
     O        7.057   8.003   7.964
     H        6.323   7.801   7.383
     H        7.544   7.181   8.030
     O        1.777  12.590   6.453
     H        1.811  11.635   6.397
     H        1.204  12.766   7.199
     O       13.524   2.175  10.019
     H       12.844   2.509  10.603
     H       14.065   1.615  10.577
     O        3.532  13.732   3.534
     H        3.610  13.312   2.678
     H        4.325  14.261   3.615
     O        1.971   9.881  11.364
     H        2.640  10.139  10.730
     H        1.178  10.333  11.074
     O        5.952   3.740  14.006
     H        5.564   3.745  13.131
     H        5.883   4.648  14.303
     O       10.959   3.424  10.767
     H       10.096   3.824  10.660
     H       10.778   2.492  10.891
     O        4.298  11.489   6.791
     H        4.917  12.174   7.045
     H        3.440  11.908   6.848
     O        8.463   9.488   5.336
     H        8.293   9.058   6.175
     H        9.367   9.255   5.126
     O        9.162   3.822   0.118
     H        8.555   4.389   0.594
     H        9.766   4.426  -0.315
     O        2.827  13.092   0.602
     H        1.998  12.656   0.407
     H        2.848  13.844   0.010
     O       15.973   0.829   8.154
     H       15.080   0.500   8.052
     H       16.512   0.221   7.646
     O       13.208   4.532  12.286
     H       13.821   3.959  12.748
     H       12.353   4.321  12.661
     O        7.922  15.864   9.072
     H        8.636  16.077   9.673
     H        8.044  14.936   8.874
     O        5.719  15.203  10.478
     H        6.000  15.513  11.339
     H        6.423  15.470   9.886
     O        7.954  12.562  11.594
     H        7.957  12.661  10.642
     H        8.546  11.828  11.761
     O        8.435  12.446   3.700
     H        8.325  11.625   4.180
     H        9.026  12.964   4.245
     O       13.013  10.726  10.741
     H       12.889   9.779  10.690
     H       13.962  10.846  10.710
     O        0.316   3.337   4.691
     H        0.579   4.245   4.537
     H       -0.640   3.356   4.661
     O       11.841  11.233  13.160
     H       11.595  12.156  13.226
     H       12.443  11.198  12.416
     O        4.914   6.884   2.983
     H        5.399   7.340   2.295
     H        5.268   5.995   2.978
     O       10.431   6.684   6.181
     H       11.341   6.448   6.362
     H       10.299   6.445   5.264
     O        1.547   3.591  15.046
     H        1.531   4.306  15.682
     H        2.152   2.950  15.420
     O       11.948   4.648  15.048
     H       12.315   3.801  15.302
     H       12.589   5.289  15.354
     O       11.108  13.720  13.578
     H       11.414  13.872  14.472
     H       10.163  13.869  13.620
     O        4.351   1.182   5.577
     H        3.460   1.306   5.249
     H        4.235   0.844   6.464
     O        5.306  11.466   0.308
     H        5.193  10.522   0.412
     H        4.415  11.813   0.273
     O       13.811   5.058   9.494
     H       13.283   4.904  10.278
     H       14.103   4.186   9.227
     O        3.985  -0.061   7.850
     H        3.814   0.399   8.672
     H        3.121  -0.338   7.545
     O        4.904   6.221  14.915
     H        4.990   7.168  15.027
     H        4.197   6.117  14.279
     O       12.972  14.733   5.293
     H       13.574  13.999   5.417
     H       13.076  15.264   6.082
     O       10.414   2.558   2.254
     H        9.583   2.565   2.729
     H       10.238   3.054   1.454
     O        3.515   3.787   2.211
     H        2.643   4.155   2.071
     H        3.577   3.070   1.580
     O       13.687   7.379  13.069
     H       14.587   7.470  12.754
     H       13.568   6.437  13.187
     O       15.427  11.382  10.112
     H       15.892  12.219  10.108
     H       15.633  10.989   9.264
     O       15.843  10.223   3.358
     H       16.662  10.065   2.888
     H       15.160   9.927   2.757
     O       10.956   8.642   2.682
     H       11.646   8.783   2.034
     H       11.240   9.141   3.448
     O       12.781  11.773   3.341
     H       13.606  11.987   3.776
     H       12.575  12.550   2.821
     O        8.477   1.735   6.013
     H        8.148   2.049   5.170
     H        7.931   2.177   6.663
     O        6.224   4.656   6.237
     H        5.895   5.540   6.072
     H        5.507   4.214   6.690
     O        0.366   7.561  12.172
     H        0.882   6.768  12.316
     H        1.000   8.275  12.239
     O        7.247   2.495   8.420
     H        7.620   1.675   8.745
     H        7.653   3.174   8.959
     O        8.152   2.113  12.778
     H        7.584   2.884  12.777
     H        8.438   2.027  13.688
     O       14.167  16.173   3.232
     H       13.709  15.798   3.985
     H       14.957  15.641   3.142
     O       13.936   7.069  16.035
     H       14.881   6.958  15.924
     H       13.661   7.563  15.263
     O        8.346   0.796   0.037
     H        7.528   0.704   0.525
     H        8.650   1.680   0.244
     O        4.479   3.083   7.582
     H        5.005   2.631   8.242
     H        4.506   2.507   6.818
     O       12.042  13.773   9.170
     H       11.985  14.039  10.088
     H       11.810  12.844   9.175
     O       15.419  12.692   4.487
     H       16.024  13.279   4.034
     H       15.647  11.819   4.167
     O        4.114   5.986  10.406
     H        3.449   5.831   9.735
     H        4.576   6.771  10.109
     O       13.894   7.082   3.597
     H       13.178   6.455   3.492
     H       13.632   7.835   3.066
     O        3.856   1.234  10.369
     H        4.201   1.914  10.946
     H        4.455   0.495  10.483
     O        1.978   1.172   4.258
     H        1.633   0.651   3.533
     H        1.291   1.812   4.442
     O        2.283   5.081   8.387
     H        1.589   4.571   7.968
     H        3.093   4.639   8.131
     O       12.257   4.407   3.398
     H       11.644   3.678   3.301
     H       12.658   4.271   4.257
     O        7.641   5.540   1.489
     H        7.029   5.143   2.109
     H        8.232   6.059   2.035
     O       15.129   2.801  13.626
     H       14.607   2.510  14.374
     H       16.027   2.829  13.955
     O        9.741   7.289  11.730
     H       10.568   7.320  11.248
     H        9.562   8.201  11.958
     O       11.419   1.532   5.714
     H       10.500   1.458   5.971
     H       11.905   1.160   6.450
     O        2.388   7.173   6.089
     H        1.670   6.813   5.568
     H        2.283   6.772   6.952
     O       12.956   0.363   7.886
     H       12.911   1.060   8.541
     H       12.809  -0.442   8.382
     O        7.748  14.929   5.606
     H        8.570  14.542   5.305
     H        7.957  15.851   5.756
     O        9.042  10.113   1.428
     H        8.286  10.036   2.010
     H        9.742   9.643   1.880
     O       11.108  15.631  -0.013
     H       11.328  15.068   0.729
     H       10.187  15.853   0.118
     O       10.432  13.406   5.698
     H       11.200  13.959   5.552
     H       10.767  12.653   6.185
     O       13.519   3.587   5.781
     H       12.700   3.108   5.909
     H       13.395   4.407   6.258
     O       10.494   7.166  14.484
     H       10.406   7.030  13.541
     H       11.066   6.456  14.776
     O        6.956   9.908   3.178
     H        6.249  10.487   3.465
     H        7.308   9.539   3.988
     O        6.005   1.035   1.712
     H        5.732   0.543   2.487
     H        5.187   1.251   1.264
     O        4.996  11.522   4.223
     H        4.833  11.298   5.140
     H        4.560  12.365   4.101
     O        1.525  13.257   9.709
     H        2.469  13.172   9.841
     H        1.300  14.095  10.114
     O        4.110   2.099  15.779
     H        4.122   1.173  15.539
     H        4.752   2.506  15.196
     O        2.820   5.794  13.215
     H        3.165   5.650  12.334
     H        2.341   4.990  13.419
     O        0.864   4.663   1.774
     H        0.227   3.951   1.816
     H        0.648   5.222   2.521
     O        5.059   7.261   5.640
     H        4.121   7.255   5.828
     H        5.113   7.223   4.685
     O        3.869  10.408   9.428
     H        3.742  10.419   8.479
     H        4.018  11.325   9.661
     O       12.506  11.058   7.450
     H       13.259  10.517   7.687
     H       11.832  10.823   8.088
     O        6.331   0.034  12.912
     H        6.717   0.813  13.312
     H        6.888  -0.687  13.207
     O        1.747  10.020   0.141
     H        2.454  10.126  -0.496
     H        2.192   9.963   0.986
     O       12.936   5.961   7.074
     H       13.731   6.441   6.843
     H       13.098   5.645   7.963
     O        6.543   9.131  12.741
     H        6.765   8.370  13.278
     H        6.382   8.770  11.869
     O       10.582  11.259   9.337
     H       11.304  11.308   9.963
     H       10.396  10.323   9.257
     O        1.703  15.310   6.412
     H        1.667  15.810   5.597
     H        1.710  14.394   6.132
     O        5.477   8.805   1.010
     H        5.994   9.050   1.778
     H        6.120   8.465   0.388
     O        9.307  10.023  12.427
     H       10.130  10.275  12.845
     H        8.630  10.296  13.046
     O       12.075  15.815  11.766
     H       13.005  15.917  11.966
     H       11.761  15.176  12.406
     O       14.668  13.233   7.208
     H       13.862  12.719   7.262
     H       15.076  12.954   6.388
     O        9.873   6.251   3.730
     H       10.528   5.758   3.236
     H       10.092   7.169   3.570
     O        6.598  13.709   0.312
     H        7.386  13.567   0.836
     H        6.178  12.850   0.273
     O        8.069   4.672  10.763
     H        8.402   5.186  11.499
     H        8.260   5.205   9.992
     O        8.262   5.534   8.166
     H        8.937   5.648   7.497
     H        7.569   5.041   7.726
     O        7.831   2.565   3.315
     H        7.175   3.262   3.304
     H        7.503   1.917   2.691
     O        7.965  10.959  14.667
     H        8.299  10.550  15.466
     H        7.058  11.184  14.874
     O        7.352   7.815  15.179
     H        8.280   7.966  15.363
     H        7.191   6.920  15.480
     O       12.467   8.139  10.737
     H       13.134   7.946  10.079
     H       12.864   7.872  11.566
     H       14.774  11.365  13.583
     C       15.132  12.285  14.104
     C       14.326  12.733  15.120
     H       13.613  12.003  15.540
     C       14.566  13.989  15.697
     H       13.950  14.429  16.454
     C       15.586  14.796  15.261
     N       15.917  15.917  15.917
     H       16.135  16.573  15.227
     H       15.234  16.246  16.509
     C       16.437  14.294  14.273
     H       17.251  14.928  13.910
     C       16.230  13.053  13.634
     H       16.951  12.657  12.950
     &END COORD
     &KIND C
       BASIS_SET TZVP-GTH-q4
       POTENTIAL GTH-PBE-q4
     &END KIND
     &KIND N
       BASIS_SET DZVP-GTH-q5
       POTENTIAL GTH-PBE-q5
     &END KIND
     &KIND H
       BASIS_SET DZVP-GTH-q1
       MASS     2.0000000000000000E+00
       POTENTIAL GTH-PBE-q1
     &END KIND
    &KIND O
       BASIS_SET DZVP-GTH-q6
       POTENTIAL GTH-PBE-q6
     &END KIND
     &TOPOLOGY
       NUMBER_OF_ATOMS  398 
       MULTIPLE_UNIT_CELL  1 1 1
     &END TOPOLOGY
   &END SUBSYS
 &END FORCE_EVAL
#####################################################################

