# Units: time:		fs
#        length:	Angstrom
#        mass: 		amu
#        temperature:   K
#####################################################################
 &GLOBAL
   PRINT_LEVEL  LOW
   PROJECT_NAME pDMB_water
   RUN_TYPE  MD
   WALLTIME 5760000  # 1600 hours
 &END GLOBAL
#####################################################################
 &MOTION
   &MD
     ENSEMBLE  NVT
     STEPS    100000
     TIMESTEP        0.5   
     TEMPERATURE     300.
     COMVEL_TOL     1.00E-03
     INITIALIZATION_METHOD  DEFAULT
     &THERMOSTAT
       TYPE  CSVR
       &CSVR
         TIMECON     9.9999999999999986E+01
       &END CSVR
     &END THERMOSTAT
     &AVERAGES  T
     &END AVERAGES
   &END MD
   &PRINT
     &RESTART  SILENT
       &EACH
         MD  100
       &END EACH
     &END RESTART
   &END PRINT
 &END MOTION
#####################################################################
 &FORCE_EVAL
   METHOD  QS
   &DFT
     BASIS_SET_FILE_NAME ./GTH_BASIS_SETS
     POTENTIAL_FILE_NAME ./POTENTIAL
     &SCF
       MAX_SCF  150
       SCF_GUESS  RESTART
       &OT  T
         MINIMIZER  DIIS
       &END OT
       &PRINT
         &RESTART  SILENT
           &EACH
             MD  100
           &END EACH
         &END RESTART
       &END PRINT
     &END SCF
     &QS
       EPS_DEFAULT     9.9999999999999998E-13
       EPS_GVG_RSPACE     9.9999999999999995E-07
       EPS_PGF_ORB     9.9999999999999995E-07
     &END QS
     &MGRID
       NGRIDS  6
       CUTOFF     3.0000000000000000E+02
     &END MGRID
     &XC
       DENSITY_CUTOFF     1.0000000000000000E-10
       GRADIENT_CUTOFF     1.0000000000000000E-10
       TAU_CUTOFF     1.0000000000000000E-10
       &XC_FUNCTIONAL  NO_SHORTCUT
         &PBE  T
         &END PBE
       &END XC_FUNCTIONAL
       &VDW_POTENTIAL
         POTENTIAL_TYPE  PAIR_POTENTIAL
         &PAIR_POTENTIAL
           R_CUTOFF     8.0000000000000000E+00
           TYPE  DFTD3
           PARAMETER_FILE_NAME ./dftd3.dat
           REFERENCE_FUNCTIONAL PBE
           EPS_CN     1.0000000000000000E-02
           CALCULATE_C9_TERM  T
           REFERENCE_C9_TERM  T
           LONG_RANGE_CORRECTION  T
         &END PAIR_POTENTIAL
       &END VDW_POTENTIAL
     &END XC
     &REAL_TIME_PROPAGATION
       INITIAL_WFN  SCF_WFN
     &END REAL_TIME_PROPAGATION
   &END DFT
   &SUBSYS
     &CELL
       A    15.9000000000000000E+00    0.0000000000000000E+00   0.0000000000000000E+00
       B     0.0000000000000000E+00   15.9000000000000000E+00   0.0000000000000000E+00
       C     0.0000000000000000E+00    0.0000000000000000E+00  15.9000000000000000E+00
       MULTIPLE_UNIT_CELL  1 1 1
     &END CELL
     &COORD
     O       12.989   8.625  -0.012
     H       13.099   7.675  -0.063
     H       12.067   8.747   0.217
     O        4.743   8.074   3.206
     H        4.141   7.376   2.946
     H        4.484   8.825   2.671
     O        9.375   0.727   1.420
     H        8.432   0.575   1.487
     H        9.772  -0.046   1.822
     O       12.056   8.460  10.140
     H       12.074   7.872   9.386
     H       12.169   7.885  10.897
     O       13.212   3.630   8.338
     H       14.041   4.038   8.090
     H       13.467   2.851   8.833
     O        0.937   6.229   0.869
     H        0.852   6.569  -0.022
     H        0.594   5.337   0.820
     O        9.299   3.173   3.310
     H        9.287   2.605   2.540
     H       10.186   3.532   3.329
     O        6.121   7.315  12.071
     H        6.736   7.068  11.380
     H        5.385   6.714  11.963
     O       12.225   6.595   2.770
     H       11.354   6.829   3.093
     H       12.829   7.026   3.375
     O        8.431   6.713   1.023
     H        8.098   6.165   1.734
     H        7.771   6.639   0.334
     O        4.922   3.395   5.572
     H        4.192   3.534   4.968
     H        4.948   4.189   6.104
     O        3.500   5.243   1.809
     H        3.820   4.843   1.000
     H        2.653   5.622   1.570
     O        9.983   7.302  14.235
     H        9.246   6.696  14.319
     H        9.587   8.171  14.287
     O        4.174  13.393   9.493
     H        3.346  13.124   9.892
     H        4.829  13.245  10.175
     O        4.255   4.797  15.159
     H        3.920   3.902  15.110
     H        3.960   5.209  14.347
     O        6.766   0.570   8.975
     H        5.988   0.474   8.425
     H        6.423   0.813   9.835
     O       15.170   3.947   1.060
     H       15.732   3.426   0.487
     H       14.766   3.307   1.646
     O       15.314   5.717   8.610
     H       15.400   5.306   9.470
     H       16.174   6.102   8.441
     O        0.488  10.935  13.901
     H        0.054  11.641  14.380
     H        1.370  11.267  13.733
     O       10.034   1.705  12.357
     H       10.468   1.727  13.210
     H        9.170   2.082  12.517
     O        6.588  13.312   4.147
     H        6.225  12.604   4.680
     H        7.383  12.940   3.764
     O       11.798   4.201   4.048
     H       12.010   4.993   3.554
     H       11.725   4.497   4.955
     O        0.122   7.691  14.303
     H        0.239   7.613  13.356
     H       -0.025   8.625  14.450
     O        2.997   3.989   8.360
     H        2.478   4.750   8.098
     H        2.648   3.268   7.836
     O       13.824  10.003  12.966
     H       14.558  10.334  13.483
     H       14.046  10.228  12.062
     O       15.433  12.763  15.749
     H       14.880  13.290  15.173
     H       14.815  12.264  16.284
     O        9.761   5.126  12.412
     H       10.216   5.252  13.245
     H       10.330   4.538  11.914
     O       12.430   1.395  14.531
     H       11.968   0.701  15.000
     H       12.332   2.168  15.088
     O        1.868   1.516   6.788
     H        1.200   1.205   7.398
     H        1.897   0.850   6.102
     O       16.121   3.576   4.774
     H       16.148   2.998   5.537
     H       15.340   3.302   4.293
     O       11.566  10.780   2.490
     H       11.694  10.587   3.419
     H       11.339   9.936   2.099
     O       10.553  14.841   3.733
     H       11.461  15.136   3.813
     H       10.045  15.496   4.212
     O        4.993   9.741  11.312
     H        5.804  10.120  10.972
     H        5.276   8.967  11.800
     O       13.893   2.671   3.013
     H       13.577   1.778   3.151
     H       13.109   3.216   3.081
     O       15.028  14.230   4.045
     H       15.174  13.318   3.792
     H       15.904  14.614   4.077
     O       -0.227   0.188  -0.159
     H        0.070   1.079  -0.341
     H        0.225  -0.056   0.649
     O       11.230  11.656   9.211
     H       10.516  12.041   9.718
     H       11.330  10.773   9.569
     O        1.648  12.863  10.779
     H        1.956  12.373  11.542
     H        1.457  12.192  10.124
     O        8.130   6.458  10.354
     H        7.881   5.721   9.798
     H        8.586   6.057  11.094
     O        9.909   4.416   0.511
     H        9.684   5.346   0.544
     H       10.621   4.364  -0.126
     O       14.887   9.400   1.850
     H       14.574  10.191   2.289
     H       14.131   9.084   1.355
     O       11.674  13.642  13.284
     H       11.189  14.408  13.589
     H       12.589  13.844  13.479
     O        1.208  12.893   6.471
     H        1.026  12.328   7.221
     H        0.789  12.453   5.731
     O       13.350   1.482   9.977
     H       12.887   0.645   9.934
     H       13.868   1.429  10.780
     O        5.050  12.997   6.791
     H        4.721  13.770   6.331
     H        4.634  13.036   7.653
     O       15.831   4.714  11.238
     H       14.946   4.803  11.592
     H       16.158   3.897  11.614
     O        7.661  15.207  12.873
     H        6.894  14.690  12.628
     H        8.038  15.486  12.038
     O        1.897  14.104  15.050
     H        1.245  13.444  15.288
     H        1.421  14.934  15.081
     O       13.774  12.243   8.066
     H       13.714  13.105   7.654
     H       12.869  12.015   8.277
     O        6.784   4.433   8.784
     H        6.483   3.529   8.877
     H        6.074   4.875   8.318
     O        6.772   4.114   3.817
     H        7.646   3.741   3.937
     H        6.270   3.794   4.567
     O       14.507   9.779  10.352
     H       13.661   9.432  10.068
     H       14.956   9.030  10.742
     O        7.139   6.968   3.785
     H        6.601   7.526   3.224
     H        6.646   6.150   3.854
     O        6.922  14.554  15.883
     H        7.415  13.751  15.714
     H        6.957  15.036  15.057
     O        1.578  15.448   1.862
     H        2.301  15.863   2.332
     H        1.998  14.973   1.145
     O       12.198  14.809  10.272
     H       12.929  14.217  10.449
     H       11.606  14.687  11.014
     O       14.831  13.606  10.548
     H       15.749  13.373  10.683
     H       14.550  13.063   9.811
     O        4.702   1.201   7.100
     H        4.895   1.981   6.580
     H        3.831   1.363   7.463
     O       12.721  12.469   0.770
     H       12.473  11.937   1.527
     H       12.311  12.031   0.024
     O        4.608  15.151   5.283
     H        4.830  15.747   5.998
     H        5.446  14.772   5.017
     O       12.746   7.393  12.607
     H       12.126   7.523  13.325
     H       13.335   8.146  12.658
     O        3.600   2.135  15.467
     H        4.111   2.252  16.268
     H        4.122   1.537  14.933
     O        8.935   1.261   7.385
     H        9.247   2.163   7.455
     H        8.139   1.241   7.915
     O        9.364   4.052   8.171
     H        8.442   4.151   8.410
     H        9.845   4.408   8.918
     O        5.707  13.386  11.983
     H        5.255  13.597  12.800
     H        6.411  12.793  12.244
     O       10.402   8.730   0.891
     H        9.732   8.112   1.182
     H        9.913   9.422   0.445
     O        2.198   9.633   4.727
     H        1.777   8.988   4.159
     H        3.132   9.430   4.669
     O        1.097  11.085   8.698
     H        0.246  10.707   8.919
     H        1.624  10.339   8.411
     O        5.636   1.897  11.095
     H        6.271   2.540  11.411
     H        5.331   1.452  11.885
     O        0.048  11.386   4.378
     H        0.831  10.842   4.467
     H       -0.614  10.942   4.907
     O       14.379   1.247  12.516
     H       15.119   1.812  12.740
     H       13.729   1.422  13.196
     O        7.706  12.540   7.638
     H        6.929  12.924   7.232
     H        8.426  12.783   7.056
     O       11.979   4.160  14.509
     H       12.342   4.808  15.113
     H       12.398   4.353  13.670
     O        9.194  -0.236  10.446
     H        8.531   0.097   9.841
     H        9.675   0.543  10.727
     O        4.835  10.894   4.789
     H        5.484  10.239   5.048
     H        4.463  11.203   5.616
     O       13.801   7.489   5.264
     H       14.576   6.959   5.452
     H       14.082   8.390   5.420
     O       -0.048   7.562  11.462
     H        0.031   6.611  11.380
     H        0.789   7.901  11.145
     O        7.829  11.680  12.413
     H        8.202  11.974  11.582
     H        8.360  10.923  12.661
     O       14.310  14.203  13.345
     H       14.719  14.206  12.479
     H       14.257  15.127  13.589
     O       12.645  15.060   0.921
     H       13.532  15.341   0.699
     H       12.652  14.112   0.787
     O       11.475  10.952  13.868
     H       12.392  10.719  13.725
     H       11.432  11.889  13.675
     O       10.790   5.596   6.534
     H       11.424   5.873   7.195
     H       10.231   4.965   6.987
     O        9.432   8.872   9.177
     H       10.178   8.788   9.771
     H        8.910   8.085   9.336
     O       13.049  15.775   3.380
     H       12.846  15.647   2.454
     H       13.769  15.169   3.555
     O        3.354  11.414  12.777
     H        4.061  11.694  13.358
     H        3.754  10.751  12.215
     O        1.652  15.077   5.029
     H        1.576  14.281   5.557
     H        2.580  15.126   4.801
     O        0.916   7.787   3.141
     H        0.983   7.478   2.238
     H        0.162   8.376   3.139
     O        2.434  15.913   9.823
     H        2.942  15.102   9.788
     H        1.641  15.721   9.322
     O        9.846   7.150   4.327
     H       10.034   6.509   5.012
     H        8.928   6.998   4.102
     O        2.534   9.165   7.418
     H        3.475   9.221   7.582
     H        2.448   9.274   6.471
     O        5.234   8.777   8.199
     H        5.732   8.850   7.384
     H        5.775   9.223   8.851
     O        9.382  12.507   2.563
     H       10.029  11.846   2.810
     H        9.874  13.328   2.540
     O        8.946   9.041   6.291
     H        9.299   8.448   5.628
     H        9.408   8.806   7.095
     O       13.859  10.185   5.763
     H       13.958  10.729   6.545
     H       12.914  10.133   5.625
     O       15.821  16.000   8.247
     H       15.176  16.339   8.867
     H       15.353  15.322   7.759
     O        8.820   0.870   4.634
     H        8.836   1.746   4.249
     H        8.878   1.021   5.577
     O        7.163   6.330  14.376
     H        6.944   5.401  14.454
     H        6.648   6.637  13.631
     O        1.737  15.558  12.680
     H        1.794  14.686  13.072
     H        1.861  15.408  11.743
     O       13.215   5.896   0.275
     H       12.909   6.255   1.108
     H       13.906   5.280   0.518
     O       12.726   7.104   7.907
     H       12.678   7.387   6.994
     H       13.563   6.644   7.972
     O        5.058   5.927   7.164
     H        5.262   6.801   7.496
     H        4.189   5.733   7.514
     O        4.598  13.578  14.467
     H        5.114  13.602  15.272
     H        3.703  13.768  14.749
     O       13.953  14.584   6.807
     H       13.106  15.028   6.808
     H       14.266  14.666   5.906
     O        6.297   8.771   5.649
     H        7.229   8.836   5.855
     H        6.230   8.001   5.083
     O        1.126   2.503  12.088
     H        1.875   2.807  11.575
     H        1.290   1.569  12.221
     O        9.988  15.391  14.697
     H        9.719  15.749  15.543
     H        9.169  15.265  14.218
     O        3.424   3.678  10.954
     H        3.965   2.897  11.075
     H        3.371   3.789  10.005
     O       10.215  13.230   6.176
     H       10.733  13.775   6.767
     H       10.315  13.644   5.318
     O        1.876   6.504   7.605
     H        1.447   6.309   6.772
     H        1.979   7.456   7.605
     O        0.818   2.599  15.071
     H        0.856   3.226  14.349
     H        1.735   2.415  15.277
     O        7.619   3.272  12.211
     H        7.359   3.362  13.128
     H        8.245   3.981  12.068
     O        2.652   8.444  10.628
     H        3.259   9.145  10.867
     H        2.811   8.296   9.696
     O        7.539   3.510  15.068
     H        6.911   3.481  15.790
     H        8.388   3.633  15.493
     O        8.708  12.568  -0.034
     H        9.554  12.820  -0.403
     H        8.831  12.632   0.914
     O       11.156  10.757   5.710
     H       10.450  10.296   6.163
     H       10.950  11.684   5.825
     O        6.825  16.225   2.707
     H        6.575  15.331   2.472
     H        7.534  16.117   3.340
     O        0.420   6.213   5.333
     H        0.369   5.312   5.013
     H        0.703   6.722   4.573
     O        5.835   2.674   1.473
     H        5.889   3.369   2.129
     H        5.867   1.863   1.981
     O       13.264   4.838  12.059
     H       13.078   5.771  12.165
     H       12.667   4.551  11.368
     O        4.612   0.520  13.286
     H        5.028  -0.195  13.767
     H        3.693   0.261  13.216
     O        7.266  10.312   9.299
     H        8.154   9.963   9.218
     H        7.234  11.034   8.671
     O        8.959  10.020  14.444
     H        8.665  10.870  14.774
     H        9.860  10.172  14.160
     O        2.861   3.524   3.783
     H        1.952   3.391   4.052
     H        2.809   4.165   3.074
     O        3.788   0.714   3.084
     H        3.460   1.590   3.286
     H        4.337   0.483   3.833
     O       11.353   3.896  10.298
     H       11.998   3.900   9.591
     H       11.453   3.038  10.710
     O       11.340  15.626   7.459
     H       11.367  15.398   8.389
     H       10.668  16.305   7.398
     O        3.502   6.184  12.414
     H        3.080   6.898  11.936
     H        3.344   5.408  11.875
     O        8.921  12.863  10.242
     H        8.615  12.851   9.335
     H        9.085  13.787  10.428
     O        3.820  12.589   1.817
     C        4.097  11.373   1.384
     C        3.064  10.561   0.896
     H        2.013  10.921   0.930
     C        3.285   9.445   0.137
     H        2.509   8.802  -0.275
     C        4.598   9.132  -0.062
     H        4.831   8.234  -0.581
     C        5.610   9.864   0.449
     H        6.605   9.526   0.272
     C        5.443  11.014   1.174
     H        6.242  11.613   1.604
     H        4.393  12.789   2.536

     &END COORD
     &KIND C
       BASIS_SET TZVP-GTH-q4
       POTENTIAL GTH-PBE-q4
     &END KIND
     &KIND O
       BASIS_SET DZVP-GTH-q6
       POTENTIAL GTH-PBE-q6
     &END KIND
     &KIND H
       BASIS_SET DZVP-GTH-q1
       MASS     2.0000000000000000E+00
       POTENTIAL GTH-PBE-q1
     &END KIND
     &TOPOLOGY
       NUMBER_OF_ATOMS  397 
       MULTIPLE_UNIT_CELL  1 1 1
     &END TOPOLOGY
   &END SUBSYS
 &END FORCE_EVAL
#####################################################################

