! STEOM-DLPNO-CCSD RIJK def2-TZVP def2/JK def2-TZVP/C verytightSCF CPCM(Water)
%maxcore 1500
%pal
nprocs 8
end
%mdci 
nroots 10
DoSOLV true
maxiter 100
end
* xyz 0 1
H  5.874000  10.883000  7.437000
C  5.410000  9.973000  7.152000
C  4.191000  10.008000  6.492000
H  3.500000  10.866000  6.565000
C  3.599000  8.823000  6.047000
H  2.631000  8.882000  5.640000
C  4.378000  7.624000  6.002000
O  4.040000  6.368000  5.527000
C  5.708000  7.609000  6.549000
C  6.183000  8.793000  7.092000
H  7.072000  8.781000  7.643000
O  6.470000  6.470000  6.470000
H  7.425000  6.654000  6.640000
C  2.745000  6.120000  4.903000
H  2.506000  6.745000  4.014000
H  1.878000  6.165000  5.591000
H  2.759000  5.049000  4.579000
*