! STEOM-DLPNO-CCSD RIJK def2-TZVP def2/JK def2-TZVP/C verytightSCF CPCM(Water)
%maxcore 1500
%pal
nprocs 8
end
%mdci 
nroots 10
DoSOLV true
maxiter 100
end
* xyz 0 1
O  4.645000  4.122000  10.422000
C  5.478000  5.115000  9.833000
C  5.518000  6.419000  10.374000
H  4.992000  6.679000  11.254000
C  6.385000  7.361000  9.726000
H  6.420000  8.449000  9.948000
C  7.033000  7.058000  8.553000
N  7.967000  7.967000  7.967000
H  7.682000  8.957000  8.253000
H  7.988000  7.864000  6.933000
C  6.806000  5.816000  7.884000
H  7.248000  5.578000  6.974000
C  6.008000  4.866000  8.544000
H  5.896000  3.839000  8.158000
H  3.607000  4.344000  10.187000
*