# Units: time:		fs
#        length:	Angstrom
#        mass: 		amu
#        temperature:   K
#####################################################################
 &GLOBAL
   PRINT_LEVEL  LOW
   PROJECT_NAME hydroquinone_water
   RUN_TYPE  MD
   WALLTIME 5760000  # 1600 hours
 &END GLOBAL
#####################################################################
 &MOTION
   &MD
     ENSEMBLE  NVT
     STEPS    100000
     TIMESTEP        0.5   
     TEMPERATURE     300.
     COMVEL_TOL     1.00E-03
     INITIALIZATION_METHOD  DEFAULT
     &THERMOSTAT
       TYPE  CSVR
       &CSVR
         TIMECON     9.9999999999999986E+01
       &END CSVR
     &END THERMOSTAT
     &AVERAGES  T
     &END AVERAGES
   &END MD
   &PRINT
     &RESTART  SILENT
       &EACH
         MD  100
       &END EACH
     &END RESTART
   &END PRINT
 &END MOTION
#####################################################################
 &FORCE_EVAL
   METHOD  QS
   &DFT
     BASIS_SET_FILE_NAME ./GTH_BASIS_SETS
     POTENTIAL_FILE_NAME ./POTENTIAL
     &SCF
       MAX_SCF  150
       SCF_GUESS  RESTART
       &OT  T
         MINIMIZER  DIIS
       &END OT
       &PRINT
         &RESTART  SILENT
           &EACH
             MD  100
           &END EACH
         &END RESTART
       &END PRINT
     &END SCF
     &QS
       EPS_DEFAULT     9.9999999999999998E-13
       EPS_GVG_RSPACE     9.9999999999999995E-07
       EPS_PGF_ORB     9.9999999999999995E-07
     &END QS
     &MGRID
       NGRIDS  6
       CUTOFF     3.0000000000000000E+02
     &END MGRID
     &XC
       DENSITY_CUTOFF     1.0000000000000000E-10
       GRADIENT_CUTOFF     1.0000000000000000E-10
       TAU_CUTOFF     1.0000000000000000E-10
       &XC_FUNCTIONAL  NO_SHORTCUT
         &PBE  T
         &END PBE
       &END XC_FUNCTIONAL
       &VDW_POTENTIAL
         POTENTIAL_TYPE  PAIR_POTENTIAL
         &PAIR_POTENTIAL
           R_CUTOFF     8.0000000000000000E+00
           TYPE  DFTD3
           PARAMETER_FILE_NAME ./dftd3.dat
           REFERENCE_FUNCTIONAL PBE
           EPS_CN     1.0000000000000000E-02
           CALCULATE_C9_TERM  T
           REFERENCE_C9_TERM  T
           LONG_RANGE_CORRECTION  T
         &END PAIR_POTENTIAL
       &END VDW_POTENTIAL
     &END XC
     &REAL_TIME_PROPAGATION
       INITIAL_WFN  SCF_WFN
     &END REAL_TIME_PROPAGATION
   &END DFT
   &SUBSYS
     &CELL
       A    15.9100000000000000E+00    0.0000000000000000E+00   0.0000000000000000E+00
       B     0.0000000000000000E+00   15.9100000000000000E+00   0.0000000000000000E+00
       C     0.0000000000000000E+00    0.0000000000000000E+00  15.9100000000000000E+00
       MULTIPLE_UNIT_CELL  1 1 1
     &END CELL
     &COORD
     O        9.313  12.552   7.393
     H        8.557  13.042   7.717
     H        9.872  13.214   6.987
     O       10.003   1.129   5.972
     H       10.454   1.246   5.135
     H        9.073   1.180   5.752
     O        2.082   6.738  15.024
     H        2.794   6.705  14.385
     H        2.051   7.653  15.302
     O        1.748  13.441   5.037
     H        1.068  14.102   5.173
     H        1.558  12.763   5.685
     O       14.380   8.042   8.672
     H       14.602   7.660   7.822
     H       13.699   8.685   8.475
     O       14.423  11.899   7.285
     H       14.157  11.634   6.404
     H       15.372  12.008   7.227
     O        2.017   9.111   5.279
     H        2.508   9.607   5.934
     H        1.648   9.779   4.700
     O       13.515   5.770  12.636
     H       14.358   6.218  12.562
     H       12.992   6.334  13.204
     O       15.250  12.780  14.515
     H       15.244  13.684  14.829
     H       15.277  12.249  15.311
     O        2.730   1.951  15.117
     H        3.616   1.974  15.480
     H        2.263   2.644  15.582
     O       -0.166  15.314   5.207
     H        0.474  15.755   4.648
     H       -0.209  15.856   5.995
     O       13.731   1.581   0.025
     H       14.350   0.852   0.066
     H       12.987   1.293   0.554
     O        6.204  15.246  14.765
     H        7.019  15.378  15.250
     H        6.332  15.725  13.946
     O        4.327   2.957   5.137
     H        3.731   3.694   5.273
     H        5.051   3.325   4.631
     O        3.015   5.445   5.617
     H        2.238   5.099   5.177
     H        2.692   5.761   6.461
     O       11.861   9.147   9.020
     H       11.653   8.651   8.228
     H       11.520   8.611   9.735
     O        6.400   6.035  16.152
     H        7.137   6.600  15.918
     H        5.865   5.998  15.360
     O        5.053  11.543  15.374
     H        4.313  10.991  15.121
     H        5.109  12.201  14.681
     O        1.870   4.466   0.502
     H        1.263   4.727   1.195
     H        1.815   5.172  -0.142
     O        9.355   4.977  11.333
     H        8.417   4.795  11.279
     H        9.560   4.899  12.265
     O        0.707  11.318   3.685
     H       -0.153  11.380   4.100
     H        1.161  12.116   3.954
     O       13.156   1.780   8.177
     H       12.210   1.706   8.302
     H       13.257   2.022   7.256
     O        4.349  10.595   6.634
     H        4.293  11.395   6.111
     H        4.576  10.898   7.513
     O       13.154   5.548   3.004
     H       12.933   5.712   2.087
     H       12.432   5.014   3.334
     O       13.206  13.972   4.541
     H       12.467  14.115   5.132
     H       13.952  14.372   4.988
     O        3.380   3.457  12.877
     H        3.171   2.875  13.608
     H        3.034   3.007  12.106
     O        2.286   2.284  10.612
     H        1.680   1.618  10.936
     H        2.383   2.088   9.680
     O        6.611   3.600   3.779
     H        6.439   4.522   3.970
     H        6.795   3.579   2.840
     O        4.992   5.559  13.770
     H        4.528   6.169  13.196
     H        4.587   4.709  13.594
     O       10.458  11.477   9.531
     H       11.018  10.739   9.292
     H        9.998  11.701   8.722
     O       13.476   8.690   3.415
     H       12.702   8.128   3.391
     H       13.997   8.412   2.661
     O        8.641  13.380   4.648
     H        9.247  12.952   4.043
     H        8.659  12.832   5.433
     O        6.389  11.569   1.931
     H        5.805  12.040   1.337
     H        5.944  10.737   2.095
     O       15.049  11.633  10.298
     H       14.538  11.257   9.581
     H       15.370  12.466   9.952
     O       10.039   5.210  14.028
     H       10.156   4.593  14.750
     H        9.546   5.936  14.410
     O        7.887   9.733   0.043
     H        7.132  10.194   0.409
     H        8.637  10.076   0.529
     O       14.500   4.186  -0.303
     H       14.784   4.576   0.524
     H       14.301   3.276  -0.082
     O        7.302   3.440   0.786
     H        6.446   3.014   0.746
     H        7.133   4.345   0.523
     O        0.893   9.118   8.326
     H        0.062   8.862   8.725
     H        1.373   9.554   9.030
     O       13.142   2.851   5.394
     H       13.722   3.494   5.803
     H       12.298   3.298   5.327
     O        8.121   8.577   7.156
     H        7.557   7.971   7.636
     H        7.586   8.868   6.417
     O        8.725  15.469   0.430
     H        8.978  14.547   0.475
     H        8.363  15.661   1.295
     O       14.210  11.206   4.548
     H       13.737  10.486   4.132
     H       13.701  11.986   4.329
     O       14.061   9.715  15.471
     H       14.014  10.246  14.676
     H       14.255  10.342  16.167
     O       14.362   1.916   3.137
     H       14.142   2.447   3.903
     H       13.896   2.336   2.413
     O        1.020   1.066   3.341
     H        1.334   0.922   2.448
     H        0.085   1.246   3.240
     O        8.371   7.260  14.516
     H        8.055   7.482  13.640
     H        8.272   8.068  15.019
     O        2.780   7.551   2.669
     H        2.536   7.537   3.595
     H        3.252   6.729   2.533
     O        0.401  13.962   9.591
     H        0.576  14.339  10.453
     H        1.251  13.639   9.293
     O       14.972   4.579   6.104
     H       14.746   5.507   6.045
     H       15.609   4.442   5.403
     O        1.617   2.189   7.848
     H        1.209   3.001   8.149
     H        0.893   1.567   7.779
     O        1.890   5.560  11.738
     H        2.335   6.033  11.035
     H        2.471   4.825  11.936
     O        3.467  15.686   8.723
     H        4.232  15.655   8.149
     H        2.811  16.171   8.222
     O        2.492   9.570  10.825
     H        1.755   9.718  11.418
     H        3.154  10.203  11.102
     O       12.650  13.378   8.678
     H       11.958  12.729   8.800
     H       13.358  12.897   8.250
     O        1.728   9.865   1.621
     H        2.181   9.119   2.014
     H        1.392  10.362   2.367
     O       14.564   7.438   5.855
     H       15.412   7.840   5.667
     H       14.029   7.635   5.086
     O        4.799  13.377  13.230
     H        4.508  14.016  12.579
     H        5.295  13.893  13.867
     O        2.794  13.008   8.806
     H        3.105  13.913   8.790
     H        3.157  12.643   9.613
     O        0.613   9.603  12.658
     H        0.273   8.711  12.733
     H       -0.169  10.153  12.604
     O        7.460  15.678   3.235
     H        7.238  16.303   3.925
     H        7.889  14.956   3.695
     O       12.522   7.654  14.416
     H       11.886   8.218  13.977
     H       13.159   8.260  14.794
     O        7.109  13.825   8.566
     H        6.691  14.214   7.798
     H        7.558  14.557   8.990
     O        4.138   5.314   1.866
     H        4.731   5.561   1.157
     H        3.572   4.643   1.483
     O        4.997   9.234   2.584
     H        4.214   8.702   2.724
     H        5.247   9.528   3.460
     O        5.792   2.254   7.569
     H        6.327   3.046   7.508
     H        4.983   2.476   7.108
     O       14.059   3.474  10.078
     H       13.716   4.364  10.003
     H       13.597   2.980   9.400
     O        4.002  15.090  11.398
     H        3.135  14.763  11.638
     H        3.903  15.389  10.494
     O        3.483  13.594   0.701
     H        3.651  12.674   0.498
     H        4.125  13.812   1.377
     O        1.219  11.548   7.151
     H        1.015  10.657   7.437
     H        1.700  11.931   7.885
     O       15.435   3.667  13.002
     H       15.762   4.436  12.533
     H       15.278   3.979  13.893
     O        4.600  13.187   5.062
     H        3.663  13.316   4.918
     H        4.986  13.224   4.187
     O        8.247   0.182   9.908
     H        7.675   0.695  10.479
     H        8.864   0.820   9.551
     O       10.783   3.987   4.657
     H       10.245   4.311   5.379
     H       10.388   4.367   3.873
     O        1.887   6.678   7.727
     H        1.231   6.158   8.191
     H        1.570   7.579   7.795
     O       15.927   5.708   2.321
     H       15.960   6.426   1.689
     H       15.092   5.827   2.775
     O       11.771   0.658   4.009
     H       12.469   1.200   4.376
     H       12.176  -0.199   3.876
     O       10.152  11.896  13.969
     H        9.271  11.660  13.677
     H       10.687  11.130  13.763
     O        1.195  14.232  12.154
     H        0.988  15.130  12.410
     H        0.848  13.693  12.865
     O       14.925  11.860   1.343
     H       14.414  12.665   1.419
     H       15.274  11.713   2.222
     O        2.758   9.934  14.844
     H        2.386  10.097  15.711
     H        2.067  10.192  14.234
     O       12.873   6.053   9.955
     H       12.940   6.093  10.909
     H       13.469   6.734   9.643
     O       15.616   0.374   7.884
     H       15.752  -0.415   8.408
     H       14.719   0.642   8.084
     O        6.405   5.383  11.196
     H        5.954   4.626  10.821
     H        5.960   5.539  12.029
     O       10.289   1.612   8.750
     H       10.022   1.438   7.848
     H       10.381   2.564   8.794
     O       10.672   4.324   9.044
     H       11.485   4.816   9.165
     H       10.116   4.598   9.773
     O        3.909   7.896  12.708
     H        3.976   8.466  13.474
     H        3.639   8.478  11.998
     O        6.333   6.877   8.758
     H        5.380   6.865   8.665
     H        6.491   6.560   9.647
     O       13.660  14.211   1.649
     H       13.714  14.050   2.591
     H       12.746  14.031   1.427
     O       16.156   4.744   8.690
     H       15.589   4.290   9.314
     H       15.657   4.750   7.873
     O        5.940  11.208   8.876
     H        6.204  12.127   8.827
     H        6.756  10.732   9.033
     O        1.188   4.035   4.420
     H        0.810   4.486   3.665
     H        1.163   3.108   4.183
     O       15.364  15.272  -0.341
     H       15.048  14.895   0.480
     H       16.203  15.673  -0.113
     O       11.183   1.184   1.318
     H       11.305   1.075   2.261
     H       10.493   0.560   1.092
     O       11.530   9.817  13.015
     H       12.304  10.254  12.661
     H       11.262   9.209  12.325
     O        3.454   7.166   9.913
     H        3.032   7.148   9.055
     H        3.099   7.946  10.340
     O        9.991   3.499   0.153
     H        9.057   3.385   0.333
     H       10.406   2.732   0.548
     O        5.356  15.117   6.780
     H        5.811  15.789   6.274
     H        5.060  14.483   6.127
     O        7.518  11.064  13.376
     H        7.222  10.271  12.929
     H        7.714  10.778  14.268
     O        7.334   1.510   5.468
     H        7.201   2.204   4.823
     H        6.813   1.780   6.224
     O        6.720   8.667  12.040
     H        6.673   8.622  11.085
     H        5.927   8.223  12.340
     O       13.887  11.123  12.813
     H       14.205  11.447  11.970
     H       14.097  11.821  13.433
     O        0.014   6.924  12.944
     H        0.383   6.943  13.827
     H        0.734   6.625  12.389
     O        7.923  13.294  11.422
     H        7.603  12.586  11.982
     H        7.371  13.251  10.641
     O       10.095   7.633  10.857
     H        9.835   6.726  11.016
     H        9.281   8.132  10.924
     O        9.237  11.449   1.758
     H        8.312  11.680   1.671
     H        9.251  10.760   2.422
     O        1.791  15.873   0.882
     H        2.250  15.044   0.744
     H        2.187  16.474   0.250
     O        7.346   6.769   2.712
     H        6.703   6.980   3.389
     H        6.841   6.745   1.900
     O        9.762   5.545   2.489
     H        8.869   5.880   2.562
     H        9.805   5.166   1.611
     O        3.802   0.526   3.615
     H        2.848   0.608   3.602
     H        4.095   1.231   4.192
     O       12.263   5.686   0.400
     H       12.343   6.458  -0.161
     H       12.787   5.016  -0.039
     O       10.696   7.879   6.758
     H        9.776   8.103   6.900
     H       10.803   7.895   5.807
     O        8.677   9.250   3.693
     H        8.307   8.560   3.142
     H        7.980   9.461   4.314
     O       10.900   7.854   3.979
     H       10.192   8.492   3.886
     H       10.548   7.049   3.598
     O       10.993  13.446   0.788
     H       11.089  13.425  -0.164
     H       10.423  12.703   0.988
     O        5.598   6.473   5.158
     H        4.660   6.349   5.010
     H        5.822   5.830   5.830
     O       11.112  14.149   6.325
     H       11.082  15.094   6.179
     H       11.757  14.034   7.023
     O        5.055  14.338   2.712
     H        5.978  14.587   2.752
     H        4.605  15.002   3.235
     O        5.183   1.486   0.665
     H        4.835   1.076   1.457
     H        5.603   0.770   0.188
     O        6.928   4.796   7.211
     H        7.834   4.903   6.922
     H        6.743   5.586   7.719
     O        6.256   9.198   5.136
     H        5.985   8.282   5.204
     H        5.558   9.687   5.572
     O        9.531   5.420   6.658
     H        9.955   6.260   6.834
     H        9.885   4.828   7.322
     O        5.412   2.932  10.285
     H        4.474   2.747  10.337
     H        5.692   2.525   9.465
     O        8.113   9.819   9.650
     H        8.661  10.581   9.833
     H        8.329   9.577   8.750
     O        6.268   0.775  11.930
     H        5.895   1.511  11.445
     H        5.616   0.079  11.851
     O        1.074   0.955  12.992
     H        1.443   1.245  13.826
     H        0.542   1.694  12.695
     O        4.385  11.446  11.206
     H        4.823  11.939  11.900
     H        5.009  11.449  10.480
     O       15.764   8.068   0.919
     H       16.414   8.753   1.072
     H       15.096   8.487   0.377
     H       13.173  -0.861  11.084
     C       12.527  -0.256  11.732
     C       11.220  -0.649  11.930
     O       10.710  -1.891  11.570
     C       10.362   0.182  12.671
     H        9.330  -0.050  12.888
     C       10.794   1.453  13.078
     H       10.084   2.154  13.508
     C       12.126   1.842  12.818
     C       12.948   1.001  12.148
     H       13.936   1.243  11.746
     O       12.654   3.041  13.108
     H       13.634   3.202  12.881
     H        9.707  -1.992  11.533
     &END COORD
     &KIND C
       BASIS_SET TZVP-GTH-q4
       POTENTIAL GTH-PBE-q4
     &END KIND
     &KIND O
       BASIS_SET DZVP-GTH-q6
       POTENTIAL GTH-PBE-q6
     &END KIND
     &KIND H
       BASIS_SET DZVP-GTH-q1
       MASS     2.0000000000000000E+00
       POTENTIAL GTH-PBE-q1
     &END KIND
     &TOPOLOGY
       NUMBER_OF_ATOMS  398
       MULTIPLE_UNIT_CELL  1 1 1
     &END TOPOLOGY
   &END SUBSYS
 &END FORCE_EVAL
#####################################################################

