# Units: time:		fs
#        length:	Angstrom
#        mass: 		amu
#        temperature:   K
#####################################################################
 &GLOBAL
   PRINT_LEVEL  LOW
   PROJECT_NAME anisole_water
   RUN_TYPE  MD
   WALLTIME 5760000 
 &END GLOBAL
#####################################################################
 &MOTION
   &MD
     ENSEMBLE  NVT
     STEPS    100000
     TIMESTEP        0.5   
     TEMPERATURE     300.
     COMVEL_TOL     1.00E-03
     INITIALIZATION_METHOD  DEFAULT
     &THERMOSTAT
       TYPE  CSVR
       &CSVR
         TIMECON     9.9999999999999986E+01
       &END CSVR
     &END THERMOSTAT
     &AVERAGES  T
     &END AVERAGES
   &END MD
   &PRINT
     &RESTART  SILENT
       &EACH
         MD  100
       &END EACH
     &END RESTART
   &END PRINT
 &END MOTION
#####################################################################
 &FORCE_EVAL
   METHOD  QS
   &DFT
     BASIS_SET_FILE_NAME ./GTH_BASIS_SETS
     POTENTIAL_FILE_NAME ./POTENTIAL
     &SCF
       MAX_SCF  150
       SCF_GUESS  RESTART
       &OT  T
         MINIMIZER  DIIS
       &END OT
       &PRINT
         &RESTART  SILENT
           &EACH
             MD  100
           &END EACH
         &END RESTART
       &END PRINT
     &END SCF
     &QS
       EPS_DEFAULT     9.9999999999999998E-13
       EPS_GVG_RSPACE     9.9999999999999995E-07
       EPS_PGF_ORB     9.9999999999999995E-07
     &END QS
     &MGRID
       NGRIDS  6
       CUTOFF     3.0000000000000000E+02
     &END MGRID
     &XC
       DENSITY_CUTOFF     1.0000000000000000E-10
       GRADIENT_CUTOFF     1.0000000000000000E-10
       TAU_CUTOFF     1.0000000000000000E-10
       &XC_FUNCTIONAL  NO_SHORTCUT
         &PBE  T
         &END PBE
       &END XC_FUNCTIONAL
       &VDW_POTENTIAL
         POTENTIAL_TYPE  PAIR_POTENTIAL
         &PAIR_POTENTIAL
           R_CUTOFF     8.0000000000000000E+00
           TYPE  DFTD3
           PARAMETER_FILE_NAME ./dftd3.dat
           REFERENCE_FUNCTIONAL PBE
           EPS_CN     1.0000000000000000E-02
           CALCULATE_C9_TERM  T
           REFERENCE_C9_TERM  T
           LONG_RANGE_CORRECTION  T
         &END PAIR_POTENTIAL
       &END VDW_POTENTIAL
     &END XC
     &REAL_TIME_PROPAGATION
       INITIAL_WFN  SCF_WFN
     &END REAL_TIME_PROPAGATION
   &END DFT
   &SUBSYS
     &CELL
       A    15.9650000000000000E+00    0.0000000000000000E+00   0.0000000000000000E+00
       B     0.0000000000000000E+00   15.9650000000000000E+00   0.0000000000000000E+00
       C     0.0000000000000000E+00    0.0000000000000000E+00  15.965G0000000000000E+00
       MULTIPLE_UNIT_CELL  1 1 1
     &END CELL
     &COORD
     O        2.241   7.161  13.038
     H        2.535   6.634  12.295
     H        2.258   6.557  13.781
     O       14.481  10.594  15.483
     H       15.225  10.052  15.746
     H       14.359  10.398  14.554
     O        8.696  12.542  15.497
     H        9.523  13.002  15.640
     H        8.829  12.057  14.683
     O        0.589   5.747   7.726
     H        0.375   6.429   8.363
     H       -0.206   5.650   7.202
     O       -0.022  15.465   9.370
     H        0.372  14.595   9.429
     H        0.587  16.036   9.839
     O       10.802   8.765   6.097
     H       10.752   8.709   5.143
     H        9.896   8.665   6.391
     O        5.144   6.350   4.135
     H        5.040   6.267   3.187
     H        5.759   7.074   4.247
     O        4.091   9.810   3.235
     H        3.457  10.320   3.738
     H        3.652   8.976   3.069
     O        3.904  16.056   3.385
     H        4.828  15.860   3.232
     H        3.432  15.348   2.946
     O        0.614   9.447   1.221
     H        1.334   8.984   1.648
     H        0.851  10.372   1.286
     O       15.727   5.936  12.063
     H       14.934   6.442  11.885
     H       16.312   6.553  12.501
     O       11.730  12.845  10.767
     H       11.541  11.944  10.504
     H       11.709  13.343   9.949
     O        7.622  11.505   1.707
     H        6.717  11.718   1.482
     H        8.145  11.927   1.025
     O        3.559   3.117   0.972
     H        3.667   2.697   1.825
     H        2.621   3.301   0.912
     O       12.031  15.042   8.621
     H       11.079  15.028   8.718
     H       12.184  14.767   7.717
     O       13.060  15.167   6.069
     H       13.772  15.720   6.390
     H       13.474  14.323   5.887
     O        2.104  12.881   6.499
     H        2.039  13.721   6.046
     H        3.045  12.719   6.570
     O        7.528   2.275   1.977
     H        7.525   2.889   2.712
     H        8.446   2.221   1.713
     O        0.836   2.623   1.137
     H        0.878   1.667   1.126
     H        0.042   2.834   0.646
     O       11.584  15.765   2.273
     H       11.509  15.148   1.544
     H       12.523  15.810   2.452
     O       14.175  15.280   2.744
     H       14.051  14.357   2.962
     H       14.578  15.659   3.525
     O       13.416   0.486  13.266
     H       14.013   1.219  13.415
     H       13.393   0.385  12.315
     O        3.518   2.851   3.816
     H        4.261   3.063   4.382
     H        3.474   1.894   3.827
     O        8.216  11.181  13.176
     H        7.649  11.699  12.604
     H        7.613  10.725  13.762
     O        5.172   3.768  11.579
     H        5.134   3.408  10.693
     H        6.100   3.955  11.723
     O       10.247   9.640  12.044
     H        9.468  10.115  12.335
     H       10.361   8.945  12.692
     O        5.918   2.766  -0.184
     H        6.353   2.360   0.565
     H        5.001   2.836   0.080
     O        5.750   4.848   8.092
     H        5.308   5.656   8.353
     H        6.660   5.107   7.947
     O        6.023   8.946  10.306
     H        5.895   8.579  11.181
     H        5.506   8.382   9.732
     O        5.261   3.892   5.479
     H        5.174   4.142   6.399
     H        5.083   4.697   4.993
     O       15.709   0.477   4.888
     H       15.339   0.716   5.738
     H       16.560   0.093   5.096
     O        7.902   3.533   4.745
     H        8.254   2.680   4.997
     H        7.019   3.548   5.114
     O        2.225  15.461   5.785
     H        2.582  15.784   6.612
     H        2.929  15.597   5.151
     O        4.137   5.886   1.410
     H        4.029   4.941   1.510
     H        4.888   5.982   0.824
     O        4.524   7.140   8.886
     H        3.874   6.911   9.550
     H        4.020   7.228   8.077
     O        8.119   7.231  12.195
     H        7.309   7.667  12.460
     H        8.748   7.459  12.879
     O        2.989  12.002  13.262
     H        3.801  12.001  12.756
     H        3.232  12.384  14.105
     O        3.257   5.666  10.853
     H        2.519   5.132  10.558
     H        3.840   5.047  11.293
     O        9.915  12.232   3.213
     H        9.092  11.963   2.805
     H        9.774  13.146   3.458
     O        4.938  11.450  11.378
     H        5.426  10.756  10.934
     H        5.515  12.212  11.339
     O        2.814   1.325   7.839
     H        2.306   1.836   7.210
     H        2.316   1.385   8.655
     O        8.155   8.942   1.943
     H        7.936   9.871   1.880
     H        8.973   8.921   2.439
     O        9.869   2.100  14.619
     H        9.017   2.180  14.191
     H       10.468   2.594  14.059
     O       14.479   3.407  -0.037
     H       14.721   4.257   0.331
     H       13.599   3.241   0.299
     O        5.105   2.366   9.008
     H        5.370   3.182   8.583
     H        4.393   2.031   8.462
     O        7.587   1.131   8.701
     H        8.200   1.833   8.919
     H        6.762   1.398   9.106
     O        7.845   4.418  11.873
     H        8.415   4.288  11.115
     H        7.813   5.368  11.989
     O        0.900  12.417   8.880
     H        1.554  11.897   9.348
     H        1.280  12.556   8.012
     O        1.694   3.117   5.993
     H        2.415   3.307   5.394
     H        0.921   3.065   5.431
     O       12.154   3.494   5.091
     H       11.418   4.102   5.157
     H       12.664   3.815   4.347
     O        8.238   9.853   8.847
     H        7.388   9.756   9.275
     H        8.428  10.789   8.897
     O       16.092   7.332   4.523
     H       16.227   7.781   5.358
     H       15.321   7.755   4.146
     O        9.344  15.005   3.954
     H        9.224  15.545   4.735
     H       10.083  15.405   3.496
     O        2.126  10.754   4.732
     H        2.346  11.494   5.298
     H        1.647  10.151   5.301
     O       14.412   4.950   6.151
     H       14.870   4.874   5.313
     H       13.954   4.115   6.250
     O        0.407  15.755   0.950
     H        0.116  15.674   0.042
     H       -0.359  15.512   1.470
     O       12.869   7.402   7.236
     H       13.216   6.735   6.643
     H       12.210   7.864   6.718
     O       11.938  12.063  13.571
     H       12.615  12.383  14.168
     H       12.322  12.159  12.699
     O       11.356   1.309   6.509
     H       11.702   2.097   6.090
     H       11.876   0.593   6.142
     O        1.125   9.072   6.663
     H        0.880   8.841   7.559
     H        1.901   8.542   6.482
     O        3.896  13.212  15.472
     H        4.657  13.793  15.477
     H        3.314  13.572  16.142
     O       14.371  10.048  12.728
     H       15.328  10.052  12.697
     H       14.112  10.829  12.238
     O       11.949   6.791   9.782
     H       12.325   6.931   8.913
     H       11.018   6.987   9.675
     O       10.383   7.759  14.212
     H        9.642   7.565  14.786
     H       11.055   7.127  14.466
     O        2.370  14.234   2.034
     H        1.676  14.850   1.797
     H        1.907  13.431   2.273
     O       10.990  13.894  15.840
     H       10.735  14.575  15.219
     H       11.931  13.782  15.701
     O        1.017  11.853   2.424
     H        0.088  12.023   2.579
     H        1.317  11.415   3.220
     O       10.553   8.712   3.333
     H       11.133   9.308   2.859
     H       10.709   7.857   2.933
     O       10.587  11.593   5.853
     H       10.555  10.643   5.960
     H       10.241  11.748   4.974
     O       15.484  14.908  14.438
     H       16.058  14.560  13.756
     H       14.760  15.313  13.960
     O       11.231   6.517   1.378
     H       12.049   6.937   1.110
     H       11.341   5.599   1.130
     O       10.627  15.542  13.793
     H       11.541  15.588  13.513
     H       10.396  16.446  14.010
     O        3.083   6.853   6.409
     H        3.570   6.659   5.608
     H        2.421   6.164   6.460
     O        1.534   1.599  10.367
     H        2.200   1.809  11.022
     H        1.168   2.447  10.115
     O        1.180   9.680  12.822
     H        1.767  10.396  13.067
     H        1.625   8.890  13.128
     O       12.577   6.275  14.221
     H       12.920   6.621  13.398
     H       12.309   5.380  14.013
     O        8.167   8.254   6.324
     H        7.529   8.501   5.655
     H        7.921   8.769   7.092
     O        6.306   9.900  14.710
     H        5.696  10.306  15.326
     H        6.695   9.176  15.199
     O       11.577   4.053  10.324
     H       12.221   3.492   9.892
     H       11.850   4.944  10.104
     O       15.233   5.872   0.674
     H       14.707   6.570   0.284
     H       16.127   6.056   0.385
     O        9.215   3.285   9.261
     H       10.115   3.419   9.557
     H        9.075   3.966   8.602
     O        8.276   5.639   7.703
     H        8.063   6.429   7.206
     H        8.344   5.937   8.610
     O       14.546  11.467   7.646
     H       15.425  11.724   7.924
     H       14.513  10.522   7.797
     O       14.534  12.043  11.014
     H       14.993  11.798  10.210
     H       13.804  12.586  10.718
     O       13.522  13.151  15.332
     H       13.969  12.357  15.626
     H       14.224  13.716  15.010
     O        1.830   3.438  14.172
     H        0.965   3.379  13.766
     H        2.316   2.697  13.810
     O        9.682  12.288   8.437
     H        9.350  13.184   8.498
     H        9.809  12.142   7.499
     O        8.713   0.768   5.886
     H        8.194   0.730   6.690
     H        9.621   0.797   6.188
     O        2.179  10.142  10.389
     H        3.127  10.272  10.415
     H        1.895  10.272  11.294
     O       15.105   3.418  13.234
     H       15.074   4.329  12.941
     H       14.847   3.454  14.155
     O        6.544   8.806   4.216
     H        5.712   9.165   3.906
     H        7.127   8.863   3.460
     O       11.988   3.891   1.054
     H       12.469   4.112   1.851
     H       11.281   3.318   1.351
     O       14.120   9.169   8.880
     H       13.675   8.532   8.322
     H       13.429   9.773   9.154
     O       12.176   3.681  13.093
     H       13.073   3.369  12.972
     H       11.896   3.953  12.219
     O        5.213   8.070  12.986
     H        5.462   8.805  13.546
     H        4.280   7.941  13.160
     O       -0.015   2.969   3.680
     H        0.441   2.890   2.842
     H       -0.066   2.072   4.011
     O        6.926  15.660   2.473
     H        7.039  16.576   2.217
     H        7.779  15.400   2.820
     O        8.692   5.398   2.538
     H        9.393   5.908   2.133
     H        8.959   5.306   3.453
     O        2.240   7.673   2.681
     H        2.652   6.833   2.478
     H        1.663   7.484   3.421
     O        5.505  15.887  13.381
     H        5.778  15.505  14.215
     H        6.229  16.463  13.133
     O        7.367   1.952  13.386
     H        6.773   2.174  14.103
     H        7.425   2.753  12.866
     O       14.898   0.964   7.389
     H       14.197   1.441   7.833
     H       15.266   0.394   8.065
     O        9.277  14.785   9.353
     H        9.109  14.473  10.242
     H        8.614  15.459   9.206
     O       10.293   1.926   1.497
     H       10.117   1.791   0.565
     H       10.637   1.087   1.801
     O        0.673   8.122   9.326
     H       -0.188   8.525   9.436
     H        1.280   8.735   9.740
     O       13.452   8.062   0.569
     H       13.257   8.854   0.068
     H       13.680   8.381   1.443
     O        7.820   7.815  15.460
     H        7.392   6.966  15.565
     H        7.915   8.148  16.352
     O       13.272  12.280   5.577
     H       13.827  12.023   6.313
     H       12.379  12.129   5.885
     O        1.184  13.713  12.363
     H        1.919  13.122  12.526
     H        0.567  13.193  11.848
     O       13.986  12.521   2.956
     H       13.896  12.304   3.884
     H       13.372  11.936   2.512
     O       10.854  10.180  15.496
     H       10.914   9.319  15.082
     H       10.983  10.801  14.778
     O       11.639  10.254   9.756
     H       10.887  10.562   9.249
     H       11.276  10.033  10.614
     O       10.055   5.335   4.987
     H       10.007   6.026   5.647
     H        9.398   4.694   5.262
     O       12.753   2.174   8.837
     H       12.043   1.853   8.280
     H       12.790   1.549   9.561
     O        1.047   4.190   9.889
     H        0.534   4.757  10.466
     H        0.861   4.513   9.008
     O        6.818  13.624  12.158
     H        6.227  14.319  12.446
     H        7.648  14.070  11.987
     O        9.147   7.352   9.710
     H        9.088   8.279   9.480
     H        8.743   7.292  10.575
     O        6.859   5.520   0.405
     H        7.496   5.292   1.081
     H        6.717   4.705  -0.077
     O        3.388   1.751  12.471
     H        4.182   2.282  12.414
     H        3.699   0.881  12.720
     O        9.486  14.169  11.909
     H       10.273  13.637  11.786
     H        9.703  14.753  12.636
     O       14.316   8.960   2.917
     H       15.128   9.307   2.549
     H       13.734   9.718   2.973
     O       13.453   7.527  11.839
     H       12.830   7.600  11.116
     H       13.661   8.433  12.068
     O        4.908  11.020   0.805
     H        4.483  10.618   1.563
     H        4.423  11.833   0.661
     O       13.945   4.708   2.860
     H       14.747   4.240   3.094
     H       14.232   5.385   2.248
     O       13.498  16.037  10.658
     H       14.376  15.868  10.316
     H       12.928  15.456  10.155
     O       12.015  10.860   2.087
     H       11.329  11.414   2.460
     H       11.674  10.600   1.231
     O        6.458  14.481  -0.135
     H        6.664  14.763   0.757
     H        7.002  13.705  -0.273
     O        1.911   5.889  15.622
     H        2.720   5.934  16.132
     H        1.910   5.008  15.249
     H        6.192  10.402   6.289
     C        6.098  11.475   6.507
     C        6.584  12.389   5.571
     H        6.923  12.043   4.555
     C        6.365  13.771   5.805
     H        6.684  14.517   5.047
     C        5.765  14.165   7.018
     H        5.492  15.193   7.110
     C        5.272  13.256   7.940
     C        5.481  11.869   7.662
     H        5.121  11.108   8.330
     O        4.581  13.644   9.082
     C        4.728  14.931   9.650
     H        4.339  15.630   8.904
     H        4.133  14.999  10.632
     H        5.814  15.160   9.835
     &END COORD
     &KIND C
       BASIS_SET TZVP-GTH-q4
       POTENTIAL GTH-PBE-q4
     &END KIND
     &KIND O
       BASIS_SET DZVP-GTH-q6
       POTENTIAL GTH-PBE-q6
     &END KIND
     &KIND H
       BASIS_SET DZVP-GTH-q1
       MASS     2.0000000000000000E+00
       POTENTIAL GTH-PBE-q1
     &END KIND
     &TOPOLOGY
       NUMBER_OF_ATOMS  400 
       MULTIPLE_UNIT_CELL  1 1 1
     &END TOPOLOGY
   &END SUBSYS
 &END FORCE_EVAL
#####################################################################

